** Stage 16N-R4Q long adaptive chain continuation
** Stage 16N-R4Q3: 750 to 771, solve 772 to 1000
** Generated by stage16n_make_r4q_restart_deck.py
** Restart is written only at the block end for the next chain block.
Stage 16N-R4Q3: 750 to 771, solve 772 to 1000
*RESTART, READ, STEP=708, INC=62
*STEP, NAME=CYCLE_0772, NLGEOM=NO, INC=160
*STATIC
0.005, 1.0, 1.0E-08, 0.025
*BOUNDARY, AMPLITUDE=AMP_ONE_CYCLE
RIGHT_EDGE, 1, 1, 0.10
*OUTPUT, HISTORY, FREQUENCY=1
*NODE OUTPUT, NSET=RIGHT_EDGE
U1, RF1
*END STEP
*STEP, NAME=CYCLE_0773, NLGEOM=NO, INC=160
*STATIC
0.005, 1.0, 1.0E-08, 0.025
*BOUNDARY, AMPLITUDE=AMP_ONE_CYCLE
RIGHT_EDGE, 1, 1, 0.10
*OUTPUT, HISTORY, FREQUENCY=1
*NODE OUTPUT, NSET=RIGHT_EDGE
U1, RF1
*END STEP
*STEP, NAME=CYCLE_0774, NLGEOM=NO, INC=160
*STATIC
0.005, 1.0, 1.0E-08, 0.025
*BOUNDARY, AMPLITUDE=AMP_ONE_CYCLE
RIGHT_EDGE, 1, 1, 0.10
*OUTPUT, HISTORY, FREQUENCY=1
*NODE OUTPUT, NSET=RIGHT_EDGE
U1, RF1
*END STEP
*STEP, NAME=CYCLE_0775, NLGEOM=NO, INC=160
*STATIC
0.005, 1.0, 1.0E-08, 0.025
*BOUNDARY, AMPLITUDE=AMP_ONE_CYCLE
RIGHT_EDGE, 1, 1, 0.10
*OUTPUT, HISTORY, FREQUENCY=1
*NODE OUTPUT, NSET=RIGHT_EDGE
U1, RF1
*END STEP
*STEP, NAME=CYCLE_0776, NLGEOM=NO, INC=160
*STATIC
0.005, 1.0, 1.0E-08, 0.025
*BOUNDARY, AMPLITUDE=AMP_ONE_CYCLE
RIGHT_EDGE, 1, 1, 0.10
*OUTPUT, HISTORY, FREQUENCY=1
*NODE OUTPUT, NSET=RIGHT_EDGE
U1, RF1
*END STEP
*STEP, NAME=CYCLE_0777, NLGEOM=NO, INC=160
*STATIC
0.005, 1.0, 1.0E-08, 0.025
*BOUNDARY, AMPLITUDE=AMP_ONE_CYCLE
RIGHT_EDGE, 1, 1, 0.10
*OUTPUT, HISTORY, FREQUENCY=1
*NODE OUTPUT, NSET=RIGHT_EDGE
U1, RF1
*END STEP
*STEP, NAME=CYCLE_0778, NLGEOM=NO, INC=160
*STATIC
0.005, 1.0, 1.0E-08, 0.025
*BOUNDARY, AMPLITUDE=AMP_ONE_CYCLE
RIGHT_EDGE, 1, 1, 0.10
*OUTPUT, HISTORY, FREQUENCY=1
*NODE OUTPUT, NSET=RIGHT_EDGE
U1, RF1
*END STEP
*STEP, NAME=CYCLE_0779, NLGEOM=NO, INC=160
*STATIC
0.005, 1.0, 1.0E-08, 0.025
*BOUNDARY, AMPLITUDE=AMP_ONE_CYCLE
RIGHT_EDGE, 1, 1, 0.10
*OUTPUT, HISTORY, FREQUENCY=1
*NODE OUTPUT, NSET=RIGHT_EDGE
U1, RF1
*END STEP
*STEP, NAME=CYCLE_0780, NLGEOM=NO, INC=160
*STATIC
0.005, 1.0, 1.0E-08, 0.025
*BOUNDARY, AMPLITUDE=AMP_ONE_CYCLE
RIGHT_EDGE, 1, 1, 0.10
*OUTPUT, HISTORY, FREQUENCY=1
*NODE OUTPUT, NSET=RIGHT_EDGE
U1, RF1
*END STEP
*STEP, NAME=CYCLE_0781, NLGEOM=NO, INC=160
*STATIC
0.005, 1.0, 1.0E-08, 0.025
*BOUNDARY, AMPLITUDE=AMP_ONE_CYCLE
RIGHT_EDGE, 1, 1, 0.10
*OUTPUT, HISTORY, FREQUENCY=1
*NODE OUTPUT, NSET=RIGHT_EDGE
U1, RF1
*END STEP
*STEP, NAME=CYCLE_0782, NLGEOM=NO, INC=160
*STATIC
0.005, 1.0, 1.0E-08, 0.025
*BOUNDARY, AMPLITUDE=AMP_ONE_CYCLE
RIGHT_EDGE, 1, 1, 0.10
*OUTPUT, HISTORY, FREQUENCY=1
*NODE OUTPUT, NSET=RIGHT_EDGE
U1, RF1
*END STEP
*STEP, NAME=CYCLE_0783, NLGEOM=NO, INC=160
*STATIC
0.005, 1.0, 1.0E-08, 0.025
*BOUNDARY, AMPLITUDE=AMP_ONE_CYCLE
RIGHT_EDGE, 1, 1, 0.10
*OUTPUT, HISTORY, FREQUENCY=1
*NODE OUTPUT, NSET=RIGHT_EDGE
U1, RF1
*END STEP
*STEP, NAME=CYCLE_0784, NLGEOM=NO, INC=160
*STATIC
0.005, 1.0, 1.0E-08, 0.025
*BOUNDARY, AMPLITUDE=AMP_ONE_CYCLE
RIGHT_EDGE, 1, 1, 0.10
*OUTPUT, HISTORY, FREQUENCY=1
*NODE OUTPUT, NSET=RIGHT_EDGE
U1, RF1
*END STEP
*STEP, NAME=CYCLE_0785, NLGEOM=NO, INC=160
*STATIC
0.005, 1.0, 1.0E-08, 0.025
*BOUNDARY, AMPLITUDE=AMP_ONE_CYCLE
RIGHT_EDGE, 1, 1, 0.10
*OUTPUT, HISTORY, FREQUENCY=1
*NODE OUTPUT, NSET=RIGHT_EDGE
U1, RF1
*END STEP
*STEP, NAME=CYCLE_0786, NLGEOM=NO, INC=160
*STATIC
0.005, 1.0, 1.0E-08, 0.025
*BOUNDARY, AMPLITUDE=AMP_ONE_CYCLE
RIGHT_EDGE, 1, 1, 0.10
*OUTPUT, HISTORY, FREQUENCY=1
*NODE OUTPUT, NSET=RIGHT_EDGE
U1, RF1
*END STEP
*STEP, NAME=CYCLE_0787, NLGEOM=NO, INC=160
*STATIC
0.005, 1.0, 1.0E-08, 0.025
*BOUNDARY, AMPLITUDE=AMP_ONE_CYCLE
RIGHT_EDGE, 1, 1, 0.10
*OUTPUT, HISTORY, FREQUENCY=1
*NODE OUTPUT, NSET=RIGHT_EDGE
U1, RF1
*END STEP
*STEP, NAME=CYCLE_0788, NLGEOM=NO, INC=160
*STATIC
0.005, 1.0, 1.0E-08, 0.025
*BOUNDARY, AMPLITUDE=AMP_ONE_CYCLE
RIGHT_EDGE, 1, 1, 0.10
*OUTPUT, HISTORY, FREQUENCY=1
*NODE OUTPUT, NSET=RIGHT_EDGE
U1, RF1
*END STEP
*STEP, NAME=CYCLE_0789, NLGEOM=NO, INC=160
*STATIC
0.005, 1.0, 1.0E-08, 0.025
*BOUNDARY, AMPLITUDE=AMP_ONE_CYCLE
RIGHT_EDGE, 1, 1, 0.10
*OUTPUT, HISTORY, FREQUENCY=1
*NODE OUTPUT, NSET=RIGHT_EDGE
U1, RF1
*END STEP
*STEP, NAME=CYCLE_0790, NLGEOM=NO, INC=160
*STATIC
0.005, 1.0, 1.0E-08, 0.025
*BOUNDARY, AMPLITUDE=AMP_ONE_CYCLE
RIGHT_EDGE, 1, 1, 0.10
*OUTPUT, HISTORY, FREQUENCY=1
*NODE OUTPUT, NSET=RIGHT_EDGE
U1, RF1
*END STEP
*STEP, NAME=CYCLE_0791, NLGEOM=NO, INC=160
*STATIC
0.005, 1.0, 1.0E-08, 0.025
*BOUNDARY, AMPLITUDE=AMP_ONE_CYCLE
RIGHT_EDGE, 1, 1, 0.10
*OUTPUT, HISTORY, FREQUENCY=1
*NODE OUTPUT, NSET=RIGHT_EDGE
U1, RF1
*END STEP
*STEP, NAME=CYCLE_0792, NLGEOM=NO, INC=160
*STATIC
0.005, 1.0, 1.0E-08, 0.025
*BOUNDARY, AMPLITUDE=AMP_ONE_CYCLE
RIGHT_EDGE, 1, 1, 0.10
*OUTPUT, HISTORY, FREQUENCY=1
*NODE OUTPUT, NSET=RIGHT_EDGE
U1, RF1
*END STEP
*STEP, NAME=CYCLE_0793, NLGEOM=NO, INC=160
*STATIC
0.005, 1.0, 1.0E-08, 0.025
*BOUNDARY, AMPLITUDE=AMP_ONE_CYCLE
RIGHT_EDGE, 1, 1, 0.10
*OUTPUT, HISTORY, FREQUENCY=1
*NODE OUTPUT, NSET=RIGHT_EDGE
U1, RF1
*END STEP
*STEP, NAME=CYCLE_0794, NLGEOM=NO, INC=160
*STATIC
0.005, 1.0, 1.0E-08, 0.025
*BOUNDARY, AMPLITUDE=AMP_ONE_CYCLE
RIGHT_EDGE, 1, 1, 0.10
*OUTPUT, HISTORY, FREQUENCY=1
*NODE OUTPUT, NSET=RIGHT_EDGE
U1, RF1
*END STEP
*STEP, NAME=CYCLE_0795, NLGEOM=NO, INC=160
*STATIC
0.005, 1.0, 1.0E-08, 0.025
*BOUNDARY, AMPLITUDE=AMP_ONE_CYCLE
RIGHT_EDGE, 1, 1, 0.10
*OUTPUT, HISTORY, FREQUENCY=1
*NODE OUTPUT, NSET=RIGHT_EDGE
U1, RF1
*END STEP
*STEP, NAME=CYCLE_0796, NLGEOM=NO, INC=160
*STATIC
0.005, 1.0, 1.0E-08, 0.025
*BOUNDARY, AMPLITUDE=AMP_ONE_CYCLE
RIGHT_EDGE, 1, 1, 0.10
*OUTPUT, HISTORY, FREQUENCY=1
*NODE OUTPUT, NSET=RIGHT_EDGE
U1, RF1
*END STEP
*STEP, NAME=CYCLE_0797, NLGEOM=NO, INC=160
*STATIC
0.005, 1.0, 1.0E-08, 0.025
*BOUNDARY, AMPLITUDE=AMP_ONE_CYCLE
RIGHT_EDGE, 1, 1, 0.10
*OUTPUT, HISTORY, FREQUENCY=1
*NODE OUTPUT, NSET=RIGHT_EDGE
U1, RF1
*END STEP
*STEP, NAME=CYCLE_0798, NLGEOM=NO, INC=160
*STATIC
0.005, 1.0, 1.0E-08, 0.025
*BOUNDARY, AMPLITUDE=AMP_ONE_CYCLE
RIGHT_EDGE, 1, 1, 0.10
*OUTPUT, HISTORY, FREQUENCY=1
*NODE OUTPUT, NSET=RIGHT_EDGE
U1, RF1
*END STEP
*STEP, NAME=CYCLE_0799, NLGEOM=NO, INC=160
*STATIC
0.005, 1.0, 1.0E-08, 0.025
*BOUNDARY, AMPLITUDE=AMP_ONE_CYCLE
RIGHT_EDGE, 1, 1, 0.10
*OUTPUT, HISTORY, FREQUENCY=1
*NODE OUTPUT, NSET=RIGHT_EDGE
U1, RF1
*END STEP
*STEP, NAME=CYCLE_0800, NLGEOM=NO, INC=160
*STATIC
0.005, 1.0, 1.0E-08, 0.025
*BOUNDARY, AMPLITUDE=AMP_ONE_CYCLE
RIGHT_EDGE, 1, 1, 0.10
*OUTPUT, HISTORY, FREQUENCY=1
*NODE OUTPUT, NSET=RIGHT_EDGE
U1, RF1
*END STEP
*STEP, NAME=CYCLE_0801, NLGEOM=NO, INC=160
*STATIC
0.005, 1.0, 1.0E-08, 0.025
*BOUNDARY, AMPLITUDE=AMP_ONE_CYCLE
RIGHT_EDGE, 1, 1, 0.10
*OUTPUT, HISTORY, FREQUENCY=1
*NODE OUTPUT, NSET=RIGHT_EDGE
U1, RF1
*END STEP
*STEP, NAME=CYCLE_0802, NLGEOM=NO, INC=160
*STATIC
0.005, 1.0, 1.0E-08, 0.025
*BOUNDARY, AMPLITUDE=AMP_ONE_CYCLE
RIGHT_EDGE, 1, 1, 0.10
*OUTPUT, HISTORY, FREQUENCY=1
*NODE OUTPUT, NSET=RIGHT_EDGE
U1, RF1
*END STEP
*STEP, NAME=CYCLE_0803, NLGEOM=NO, INC=160
*STATIC
0.005, 1.0, 1.0E-08, 0.025
*BOUNDARY, AMPLITUDE=AMP_ONE_CYCLE
RIGHT_EDGE, 1, 1, 0.10
*OUTPUT, HISTORY, FREQUENCY=1
*NODE OUTPUT, NSET=RIGHT_EDGE
U1, RF1
*END STEP
*STEP, NAME=CYCLE_0804, NLGEOM=NO, INC=160
*STATIC
0.005, 1.0, 1.0E-08, 0.025
*BOUNDARY, AMPLITUDE=AMP_ONE_CYCLE
RIGHT_EDGE, 1, 1, 0.10
*OUTPUT, HISTORY, FREQUENCY=1
*NODE OUTPUT, NSET=RIGHT_EDGE
U1, RF1
*END STEP
*STEP, NAME=CYCLE_0805, NLGEOM=NO, INC=160
*STATIC
0.005, 1.0, 1.0E-08, 0.025
*BOUNDARY, AMPLITUDE=AMP_ONE_CYCLE
RIGHT_EDGE, 1, 1, 0.10
*OUTPUT, HISTORY, FREQUENCY=1
*NODE OUTPUT, NSET=RIGHT_EDGE
U1, RF1
*END STEP
*STEP, NAME=CYCLE_0806, NLGEOM=NO, INC=160
*STATIC
0.005, 1.0, 1.0E-08, 0.025
*BOUNDARY, AMPLITUDE=AMP_ONE_CYCLE
RIGHT_EDGE, 1, 1, 0.10
*OUTPUT, HISTORY, FREQUENCY=1
*NODE OUTPUT, NSET=RIGHT_EDGE
U1, RF1
*END STEP
*STEP, NAME=CYCLE_0807, NLGEOM=NO, INC=160
*STATIC
0.005, 1.0, 1.0E-08, 0.025
*BOUNDARY, AMPLITUDE=AMP_ONE_CYCLE
RIGHT_EDGE, 1, 1, 0.10
*OUTPUT, HISTORY, FREQUENCY=1
*NODE OUTPUT, NSET=RIGHT_EDGE
U1, RF1
*END STEP
*STEP, NAME=CYCLE_0808, NLGEOM=NO, INC=160
*STATIC
0.005, 1.0, 1.0E-08, 0.025
*BOUNDARY, AMPLITUDE=AMP_ONE_CYCLE
RIGHT_EDGE, 1, 1, 0.10
*OUTPUT, HISTORY, FREQUENCY=1
*NODE OUTPUT, NSET=RIGHT_EDGE
U1, RF1
*END STEP
*STEP, NAME=CYCLE_0809, NLGEOM=NO, INC=160
*STATIC
0.005, 1.0, 1.0E-08, 0.025
*BOUNDARY, AMPLITUDE=AMP_ONE_CYCLE
RIGHT_EDGE, 1, 1, 0.10
*OUTPUT, HISTORY, FREQUENCY=1
*NODE OUTPUT, NSET=RIGHT_EDGE
U1, RF1
*END STEP
*STEP, NAME=CYCLE_0810, NLGEOM=NO, INC=160
*STATIC
0.005, 1.0, 1.0E-08, 0.025
*BOUNDARY, AMPLITUDE=AMP_ONE_CYCLE
RIGHT_EDGE, 1, 1, 0.10
*OUTPUT, HISTORY, FREQUENCY=1
*NODE OUTPUT, NSET=RIGHT_EDGE
U1, RF1
*END STEP
*STEP, NAME=CYCLE_0811, NLGEOM=NO, INC=160
*STATIC
0.005, 1.0, 1.0E-08, 0.025
*BOUNDARY, AMPLITUDE=AMP_ONE_CYCLE
RIGHT_EDGE, 1, 1, 0.10
*OUTPUT, HISTORY, FREQUENCY=1
*NODE OUTPUT, NSET=RIGHT_EDGE
U1, RF1
*END STEP
*STEP, NAME=CYCLE_0812, NLGEOM=NO, INC=160
*STATIC
0.005, 1.0, 1.0E-08, 0.025
*BOUNDARY, AMPLITUDE=AMP_ONE_CYCLE
RIGHT_EDGE, 1, 1, 0.10
*OUTPUT, HISTORY, FREQUENCY=1
*NODE OUTPUT, NSET=RIGHT_EDGE
U1, RF1
*END STEP
*STEP, NAME=CYCLE_0813, NLGEOM=NO, INC=160
*STATIC
0.005, 1.0, 1.0E-08, 0.025
*BOUNDARY, AMPLITUDE=AMP_ONE_CYCLE
RIGHT_EDGE, 1, 1, 0.10
*OUTPUT, HISTORY, FREQUENCY=1
*NODE OUTPUT, NSET=RIGHT_EDGE
U1, RF1
*END STEP
*STEP, NAME=CYCLE_0814, NLGEOM=NO, INC=160
*STATIC
0.005, 1.0, 1.0E-08, 0.025
*BOUNDARY, AMPLITUDE=AMP_ONE_CYCLE
RIGHT_EDGE, 1, 1, 0.10
*OUTPUT, HISTORY, FREQUENCY=1
*NODE OUTPUT, NSET=RIGHT_EDGE
U1, RF1
*END STEP
*STEP, NAME=CYCLE_0815, NLGEOM=NO, INC=160
*STATIC
0.005, 1.0, 1.0E-08, 0.025
*BOUNDARY, AMPLITUDE=AMP_ONE_CYCLE
RIGHT_EDGE, 1, 1, 0.10
*OUTPUT, HISTORY, FREQUENCY=1
*NODE OUTPUT, NSET=RIGHT_EDGE
U1, RF1
*END STEP
*STEP, NAME=CYCLE_0816, NLGEOM=NO, INC=160
*STATIC
0.005, 1.0, 1.0E-08, 0.025
*BOUNDARY, AMPLITUDE=AMP_ONE_CYCLE
RIGHT_EDGE, 1, 1, 0.10
*OUTPUT, HISTORY, FREQUENCY=1
*NODE OUTPUT, NSET=RIGHT_EDGE
U1, RF1
*END STEP
*STEP, NAME=CYCLE_0817, NLGEOM=NO, INC=160
*STATIC
0.005, 1.0, 1.0E-08, 0.025
*BOUNDARY, AMPLITUDE=AMP_ONE_CYCLE
RIGHT_EDGE, 1, 1, 0.10
*OUTPUT, HISTORY, FREQUENCY=1
*NODE OUTPUT, NSET=RIGHT_EDGE
U1, RF1
*END STEP
*STEP, NAME=CYCLE_0818, NLGEOM=NO, INC=160
*STATIC
0.005, 1.0, 1.0E-08, 0.025
*BOUNDARY, AMPLITUDE=AMP_ONE_CYCLE
RIGHT_EDGE, 1, 1, 0.10
*OUTPUT, HISTORY, FREQUENCY=1
*NODE OUTPUT, NSET=RIGHT_EDGE
U1, RF1
*END STEP
*STEP, NAME=CYCLE_0819, NLGEOM=NO, INC=160
*STATIC
0.005, 1.0, 1.0E-08, 0.025
*BOUNDARY, AMPLITUDE=AMP_ONE_CYCLE
RIGHT_EDGE, 1, 1, 0.10
*OUTPUT, HISTORY, FREQUENCY=1
*NODE OUTPUT, NSET=RIGHT_EDGE
U1, RF1
*END STEP
*STEP, NAME=CYCLE_0820, NLGEOM=NO, INC=160
*STATIC
0.005, 1.0, 1.0E-08, 0.025
*BOUNDARY, AMPLITUDE=AMP_ONE_CYCLE
RIGHT_EDGE, 1, 1, 0.10
*OUTPUT, HISTORY, FREQUENCY=1
*NODE OUTPUT, NSET=RIGHT_EDGE
U1, RF1
*END STEP
*STEP, NAME=CYCLE_0821, NLGEOM=NO, INC=160
*STATIC
0.005, 1.0, 1.0E-08, 0.025
*BOUNDARY, AMPLITUDE=AMP_ONE_CYCLE
RIGHT_EDGE, 1, 1, 0.10
*OUTPUT, HISTORY, FREQUENCY=1
*NODE OUTPUT, NSET=RIGHT_EDGE
U1, RF1
*END STEP
*STEP, NAME=CYCLE_0822, NLGEOM=NO, INC=160
*STATIC
0.005, 1.0, 1.0E-08, 0.025
*BOUNDARY, AMPLITUDE=AMP_ONE_CYCLE
RIGHT_EDGE, 1, 1, 0.10
*OUTPUT, HISTORY, FREQUENCY=1
*NODE OUTPUT, NSET=RIGHT_EDGE
U1, RF1
*END STEP
*STEP, NAME=CYCLE_0823, NLGEOM=NO, INC=160
*STATIC
0.005, 1.0, 1.0E-08, 0.025
*BOUNDARY, AMPLITUDE=AMP_ONE_CYCLE
RIGHT_EDGE, 1, 1, 0.10
*OUTPUT, HISTORY, FREQUENCY=1
*NODE OUTPUT, NSET=RIGHT_EDGE
U1, RF1
*END STEP
*STEP, NAME=CYCLE_0824, NLGEOM=NO, INC=160
*STATIC
0.005, 1.0, 1.0E-08, 0.025
*BOUNDARY, AMPLITUDE=AMP_ONE_CYCLE
RIGHT_EDGE, 1, 1, 0.10
*OUTPUT, HISTORY, FREQUENCY=1
*NODE OUTPUT, NSET=RIGHT_EDGE
U1, RF1
*END STEP
*STEP, NAME=CYCLE_0825, NLGEOM=NO, INC=160
*STATIC
0.005, 1.0, 1.0E-08, 0.025
*BOUNDARY, AMPLITUDE=AMP_ONE_CYCLE
RIGHT_EDGE, 1, 1, 0.10
*OUTPUT, HISTORY, FREQUENCY=1
*NODE OUTPUT, NSET=RIGHT_EDGE
U1, RF1
*END STEP
*STEP, NAME=CYCLE_0826, NLGEOM=NO, INC=160
*STATIC
0.005, 1.0, 1.0E-08, 0.025
*BOUNDARY, AMPLITUDE=AMP_ONE_CYCLE
RIGHT_EDGE, 1, 1, 0.10
*OUTPUT, HISTORY, FREQUENCY=1
*NODE OUTPUT, NSET=RIGHT_EDGE
U1, RF1
*END STEP
*STEP, NAME=CYCLE_0827, NLGEOM=NO, INC=160
*STATIC
0.005, 1.0, 1.0E-08, 0.025
*BOUNDARY, AMPLITUDE=AMP_ONE_CYCLE
RIGHT_EDGE, 1, 1, 0.10
*OUTPUT, HISTORY, FREQUENCY=1
*NODE OUTPUT, NSET=RIGHT_EDGE
U1, RF1
*END STEP
*STEP, NAME=CYCLE_0828, NLGEOM=NO, INC=160
*STATIC
0.005, 1.0, 1.0E-08, 0.025
*BOUNDARY, AMPLITUDE=AMP_ONE_CYCLE
RIGHT_EDGE, 1, 1, 0.10
*OUTPUT, HISTORY, FREQUENCY=1
*NODE OUTPUT, NSET=RIGHT_EDGE
U1, RF1
*END STEP
*STEP, NAME=CYCLE_0829, NLGEOM=NO, INC=160
*STATIC
0.005, 1.0, 1.0E-08, 0.025
*BOUNDARY, AMPLITUDE=AMP_ONE_CYCLE
RIGHT_EDGE, 1, 1, 0.10
*OUTPUT, HISTORY, FREQUENCY=1
*NODE OUTPUT, NSET=RIGHT_EDGE
U1, RF1
*END STEP
*STEP, NAME=CYCLE_0830, NLGEOM=NO, INC=160
*STATIC
0.005, 1.0, 1.0E-08, 0.025
*BOUNDARY, AMPLITUDE=AMP_ONE_CYCLE
RIGHT_EDGE, 1, 1, 0.10
*OUTPUT, HISTORY, FREQUENCY=1
*NODE OUTPUT, NSET=RIGHT_EDGE
U1, RF1
*END STEP
*STEP, NAME=CYCLE_0831, NLGEOM=NO, INC=160
*STATIC
0.005, 1.0, 1.0E-08, 0.025
*BOUNDARY, AMPLITUDE=AMP_ONE_CYCLE
RIGHT_EDGE, 1, 1, 0.10
*OUTPUT, HISTORY, FREQUENCY=1
*NODE OUTPUT, NSET=RIGHT_EDGE
U1, RF1
*END STEP
*STEP, NAME=CYCLE_0832, NLGEOM=NO, INC=160
*STATIC
0.005, 1.0, 1.0E-08, 0.025
*BOUNDARY, AMPLITUDE=AMP_ONE_CYCLE
RIGHT_EDGE, 1, 1, 0.10
*OUTPUT, HISTORY, FREQUENCY=1
*NODE OUTPUT, NSET=RIGHT_EDGE
U1, RF1
*END STEP
*STEP, NAME=CYCLE_0833, NLGEOM=NO, INC=160
*STATIC
0.005, 1.0, 1.0E-08, 0.025
*BOUNDARY, AMPLITUDE=AMP_ONE_CYCLE
RIGHT_EDGE, 1, 1, 0.10
*OUTPUT, HISTORY, FREQUENCY=1
*NODE OUTPUT, NSET=RIGHT_EDGE
U1, RF1
*END STEP
*STEP, NAME=CYCLE_0834, NLGEOM=NO, INC=160
*STATIC
0.005, 1.0, 1.0E-08, 0.025
*BOUNDARY, AMPLITUDE=AMP_ONE_CYCLE
RIGHT_EDGE, 1, 1, 0.10
*OUTPUT, HISTORY, FREQUENCY=1
*NODE OUTPUT, NSET=RIGHT_EDGE
U1, RF1
*END STEP
*STEP, NAME=CYCLE_0835, NLGEOM=NO, INC=160
*STATIC
0.005, 1.0, 1.0E-08, 0.025
*BOUNDARY, AMPLITUDE=AMP_ONE_CYCLE
RIGHT_EDGE, 1, 1, 0.10
*OUTPUT, HISTORY, FREQUENCY=1
*NODE OUTPUT, NSET=RIGHT_EDGE
U1, RF1
*END STEP
*STEP, NAME=CYCLE_0836, NLGEOM=NO, INC=160
*STATIC
0.005, 1.0, 1.0E-08, 0.025
*BOUNDARY, AMPLITUDE=AMP_ONE_CYCLE
RIGHT_EDGE, 1, 1, 0.10
*OUTPUT, HISTORY, FREQUENCY=1
*NODE OUTPUT, NSET=RIGHT_EDGE
U1, RF1
*END STEP
*STEP, NAME=CYCLE_0837, NLGEOM=NO, INC=160
*STATIC
0.005, 1.0, 1.0E-08, 0.025
*BOUNDARY, AMPLITUDE=AMP_ONE_CYCLE
RIGHT_EDGE, 1, 1, 0.10
*OUTPUT, HISTORY, FREQUENCY=1
*NODE OUTPUT, NSET=RIGHT_EDGE
U1, RF1
*END STEP
*STEP, NAME=CYCLE_0838, NLGEOM=NO, INC=160
*STATIC
0.005, 1.0, 1.0E-08, 0.025
*BOUNDARY, AMPLITUDE=AMP_ONE_CYCLE
RIGHT_EDGE, 1, 1, 0.10
*OUTPUT, HISTORY, FREQUENCY=1
*NODE OUTPUT, NSET=RIGHT_EDGE
U1, RF1
*END STEP
*STEP, NAME=CYCLE_0839, NLGEOM=NO, INC=160
*STATIC
0.005, 1.0, 1.0E-08, 0.025
*BOUNDARY, AMPLITUDE=AMP_ONE_CYCLE
RIGHT_EDGE, 1, 1, 0.10
*OUTPUT, HISTORY, FREQUENCY=1
*NODE OUTPUT, NSET=RIGHT_EDGE
U1, RF1
*END STEP
*STEP, NAME=CYCLE_0840, NLGEOM=NO, INC=160
*STATIC
0.005, 1.0, 1.0E-08, 0.025
*BOUNDARY, AMPLITUDE=AMP_ONE_CYCLE
RIGHT_EDGE, 1, 1, 0.10
*OUTPUT, HISTORY, FREQUENCY=1
*NODE OUTPUT, NSET=RIGHT_EDGE
U1, RF1
*END STEP
*STEP, NAME=CYCLE_0841, NLGEOM=NO, INC=160
*STATIC
0.005, 1.0, 1.0E-08, 0.025
*BOUNDARY, AMPLITUDE=AMP_ONE_CYCLE
RIGHT_EDGE, 1, 1, 0.10
*OUTPUT, HISTORY, FREQUENCY=1
*NODE OUTPUT, NSET=RIGHT_EDGE
U1, RF1
*END STEP
*STEP, NAME=CYCLE_0842, NLGEOM=NO, INC=160
*STATIC
0.005, 1.0, 1.0E-08, 0.025
*BOUNDARY, AMPLITUDE=AMP_ONE_CYCLE
RIGHT_EDGE, 1, 1, 0.10
*OUTPUT, HISTORY, FREQUENCY=1
*NODE OUTPUT, NSET=RIGHT_EDGE
U1, RF1
*END STEP
*STEP, NAME=CYCLE_0843, NLGEOM=NO, INC=160
*STATIC
0.005, 1.0, 1.0E-08, 0.025
*BOUNDARY, AMPLITUDE=AMP_ONE_CYCLE
RIGHT_EDGE, 1, 1, 0.10
*OUTPUT, HISTORY, FREQUENCY=1
*NODE OUTPUT, NSET=RIGHT_EDGE
U1, RF1
*END STEP
*STEP, NAME=CYCLE_0844, NLGEOM=NO, INC=160
*STATIC
0.005, 1.0, 1.0E-08, 0.025
*BOUNDARY, AMPLITUDE=AMP_ONE_CYCLE
RIGHT_EDGE, 1, 1, 0.10
*OUTPUT, HISTORY, FREQUENCY=1
*NODE OUTPUT, NSET=RIGHT_EDGE
U1, RF1
*END STEP
*STEP, NAME=CYCLE_0845, NLGEOM=NO, INC=160
*STATIC
0.005, 1.0, 1.0E-08, 0.025
*BOUNDARY, AMPLITUDE=AMP_ONE_CYCLE
RIGHT_EDGE, 1, 1, 0.10
*OUTPUT, HISTORY, FREQUENCY=1
*NODE OUTPUT, NSET=RIGHT_EDGE
U1, RF1
*END STEP
*STEP, NAME=CYCLE_0846, NLGEOM=NO, INC=160
*STATIC
0.005, 1.0, 1.0E-08, 0.025
*BOUNDARY, AMPLITUDE=AMP_ONE_CYCLE
RIGHT_EDGE, 1, 1, 0.10
*OUTPUT, HISTORY, FREQUENCY=1
*NODE OUTPUT, NSET=RIGHT_EDGE
U1, RF1
*END STEP
*STEP, NAME=CYCLE_0847, NLGEOM=NO, INC=160
*STATIC
0.005, 1.0, 1.0E-08, 0.025
*BOUNDARY, AMPLITUDE=AMP_ONE_CYCLE
RIGHT_EDGE, 1, 1, 0.10
*OUTPUT, HISTORY, FREQUENCY=1
*NODE OUTPUT, NSET=RIGHT_EDGE
U1, RF1
*END STEP
*STEP, NAME=CYCLE_0848, NLGEOM=NO, INC=160
*STATIC
0.005, 1.0, 1.0E-08, 0.025
*BOUNDARY, AMPLITUDE=AMP_ONE_CYCLE
RIGHT_EDGE, 1, 1, 0.10
*OUTPUT, HISTORY, FREQUENCY=1
*NODE OUTPUT, NSET=RIGHT_EDGE
U1, RF1
*END STEP
*STEP, NAME=CYCLE_0849, NLGEOM=NO, INC=160
*STATIC
0.005, 1.0, 1.0E-08, 0.025
*BOUNDARY, AMPLITUDE=AMP_ONE_CYCLE
RIGHT_EDGE, 1, 1, 0.10
*OUTPUT, HISTORY, FREQUENCY=1
*NODE OUTPUT, NSET=RIGHT_EDGE
U1, RF1
*END STEP
*STEP, NAME=CYCLE_0850, NLGEOM=NO, INC=160
*STATIC
0.005, 1.0, 1.0E-08, 0.025
*BOUNDARY, AMPLITUDE=AMP_ONE_CYCLE
RIGHT_EDGE, 1, 1, 0.10
*OUTPUT, HISTORY, FREQUENCY=1
*NODE OUTPUT, NSET=RIGHT_EDGE
U1, RF1
*END STEP
*STEP, NAME=CYCLE_0851, NLGEOM=NO, INC=160
*STATIC
0.005, 1.0, 1.0E-08, 0.025
*BOUNDARY, AMPLITUDE=AMP_ONE_CYCLE
RIGHT_EDGE, 1, 1, 0.10
*OUTPUT, HISTORY, FREQUENCY=1
*NODE OUTPUT, NSET=RIGHT_EDGE
U1, RF1
*END STEP
*STEP, NAME=CYCLE_0852, NLGEOM=NO, INC=160
*STATIC
0.005, 1.0, 1.0E-08, 0.025
*BOUNDARY, AMPLITUDE=AMP_ONE_CYCLE
RIGHT_EDGE, 1, 1, 0.10
*OUTPUT, HISTORY, FREQUENCY=1
*NODE OUTPUT, NSET=RIGHT_EDGE
U1, RF1
*END STEP
*STEP, NAME=CYCLE_0853, NLGEOM=NO, INC=160
*STATIC
0.005, 1.0, 1.0E-08, 0.025
*BOUNDARY, AMPLITUDE=AMP_ONE_CYCLE
RIGHT_EDGE, 1, 1, 0.10
*OUTPUT, HISTORY, FREQUENCY=1
*NODE OUTPUT, NSET=RIGHT_EDGE
U1, RF1
*END STEP
*STEP, NAME=CYCLE_0854, NLGEOM=NO, INC=160
*STATIC
0.005, 1.0, 1.0E-08, 0.025
*BOUNDARY, AMPLITUDE=AMP_ONE_CYCLE
RIGHT_EDGE, 1, 1, 0.10
*OUTPUT, HISTORY, FREQUENCY=1
*NODE OUTPUT, NSET=RIGHT_EDGE
U1, RF1
*END STEP
*STEP, NAME=CYCLE_0855, NLGEOM=NO, INC=160
*STATIC
0.005, 1.0, 1.0E-08, 0.025
*BOUNDARY, AMPLITUDE=AMP_ONE_CYCLE
RIGHT_EDGE, 1, 1, 0.10
*OUTPUT, HISTORY, FREQUENCY=1
*NODE OUTPUT, NSET=RIGHT_EDGE
U1, RF1
*END STEP
*STEP, NAME=CYCLE_0856, NLGEOM=NO, INC=160
*STATIC
0.005, 1.0, 1.0E-08, 0.025
*BOUNDARY, AMPLITUDE=AMP_ONE_CYCLE
RIGHT_EDGE, 1, 1, 0.10
*OUTPUT, HISTORY, FREQUENCY=1
*NODE OUTPUT, NSET=RIGHT_EDGE
U1, RF1
*END STEP
*STEP, NAME=CYCLE_0857, NLGEOM=NO, INC=160
*STATIC
0.005, 1.0, 1.0E-08, 0.025
*BOUNDARY, AMPLITUDE=AMP_ONE_CYCLE
RIGHT_EDGE, 1, 1, 0.10
*OUTPUT, HISTORY, FREQUENCY=1
*NODE OUTPUT, NSET=RIGHT_EDGE
U1, RF1
*END STEP
*STEP, NAME=CYCLE_0858, NLGEOM=NO, INC=160
*STATIC
0.005, 1.0, 1.0E-08, 0.025
*BOUNDARY, AMPLITUDE=AMP_ONE_CYCLE
RIGHT_EDGE, 1, 1, 0.10
*OUTPUT, HISTORY, FREQUENCY=1
*NODE OUTPUT, NSET=RIGHT_EDGE
U1, RF1
*END STEP
*STEP, NAME=CYCLE_0859, NLGEOM=NO, INC=160
*STATIC
0.005, 1.0, 1.0E-08, 0.025
*BOUNDARY, AMPLITUDE=AMP_ONE_CYCLE
RIGHT_EDGE, 1, 1, 0.10
*OUTPUT, HISTORY, FREQUENCY=1
*NODE OUTPUT, NSET=RIGHT_EDGE
U1, RF1
*END STEP
*STEP, NAME=CYCLE_0860, NLGEOM=NO, INC=160
*STATIC
0.005, 1.0, 1.0E-08, 0.025
*BOUNDARY, AMPLITUDE=AMP_ONE_CYCLE
RIGHT_EDGE, 1, 1, 0.10
*OUTPUT, HISTORY, FREQUENCY=1
*NODE OUTPUT, NSET=RIGHT_EDGE
U1, RF1
*END STEP
*STEP, NAME=CYCLE_0861, NLGEOM=NO, INC=160
*STATIC
0.005, 1.0, 1.0E-08, 0.025
*BOUNDARY, AMPLITUDE=AMP_ONE_CYCLE
RIGHT_EDGE, 1, 1, 0.10
*OUTPUT, HISTORY, FREQUENCY=1
*NODE OUTPUT, NSET=RIGHT_EDGE
U1, RF1
*END STEP
*STEP, NAME=CYCLE_0862, NLGEOM=NO, INC=160
*STATIC
0.005, 1.0, 1.0E-08, 0.025
*BOUNDARY, AMPLITUDE=AMP_ONE_CYCLE
RIGHT_EDGE, 1, 1, 0.10
*OUTPUT, HISTORY, FREQUENCY=1
*NODE OUTPUT, NSET=RIGHT_EDGE
U1, RF1
*END STEP
*STEP, NAME=CYCLE_0863, NLGEOM=NO, INC=160
*STATIC
0.005, 1.0, 1.0E-08, 0.025
*BOUNDARY, AMPLITUDE=AMP_ONE_CYCLE
RIGHT_EDGE, 1, 1, 0.10
*OUTPUT, HISTORY, FREQUENCY=1
*NODE OUTPUT, NSET=RIGHT_EDGE
U1, RF1
*END STEP
*STEP, NAME=CYCLE_0864, NLGEOM=NO, INC=160
*STATIC
0.005, 1.0, 1.0E-08, 0.025
*BOUNDARY, AMPLITUDE=AMP_ONE_CYCLE
RIGHT_EDGE, 1, 1, 0.10
*OUTPUT, HISTORY, FREQUENCY=1
*NODE OUTPUT, NSET=RIGHT_EDGE
U1, RF1
*END STEP
*STEP, NAME=CYCLE_0865, NLGEOM=NO, INC=160
*STATIC
0.005, 1.0, 1.0E-08, 0.025
*BOUNDARY, AMPLITUDE=AMP_ONE_CYCLE
RIGHT_EDGE, 1, 1, 0.10
*OUTPUT, HISTORY, FREQUENCY=1
*NODE OUTPUT, NSET=RIGHT_EDGE
U1, RF1
*END STEP
*STEP, NAME=CYCLE_0866, NLGEOM=NO, INC=160
*STATIC
0.005, 1.0, 1.0E-08, 0.025
*BOUNDARY, AMPLITUDE=AMP_ONE_CYCLE
RIGHT_EDGE, 1, 1, 0.10
*OUTPUT, HISTORY, FREQUENCY=1
*NODE OUTPUT, NSET=RIGHT_EDGE
U1, RF1
*END STEP
*STEP, NAME=CYCLE_0867, NLGEOM=NO, INC=160
*STATIC
0.005, 1.0, 1.0E-08, 0.025
*BOUNDARY, AMPLITUDE=AMP_ONE_CYCLE
RIGHT_EDGE, 1, 1, 0.10
*OUTPUT, HISTORY, FREQUENCY=1
*NODE OUTPUT, NSET=RIGHT_EDGE
U1, RF1
*END STEP
*STEP, NAME=CYCLE_0868, NLGEOM=NO, INC=160
*STATIC
0.005, 1.0, 1.0E-08, 0.025
*BOUNDARY, AMPLITUDE=AMP_ONE_CYCLE
RIGHT_EDGE, 1, 1, 0.10
*OUTPUT, HISTORY, FREQUENCY=1
*NODE OUTPUT, NSET=RIGHT_EDGE
U1, RF1
*END STEP
*STEP, NAME=CYCLE_0869, NLGEOM=NO, INC=160
*STATIC
0.005, 1.0, 1.0E-08, 0.025
*BOUNDARY, AMPLITUDE=AMP_ONE_CYCLE
RIGHT_EDGE, 1, 1, 0.10
*OUTPUT, HISTORY, FREQUENCY=1
*NODE OUTPUT, NSET=RIGHT_EDGE
U1, RF1
*END STEP
*STEP, NAME=CYCLE_0870, NLGEOM=NO, INC=160
*STATIC
0.005, 1.0, 1.0E-08, 0.025
*BOUNDARY, AMPLITUDE=AMP_ONE_CYCLE
RIGHT_EDGE, 1, 1, 0.10
*OUTPUT, HISTORY, FREQUENCY=1
*NODE OUTPUT, NSET=RIGHT_EDGE
U1, RF1
*END STEP
*STEP, NAME=CYCLE_0871, NLGEOM=NO, INC=160
*STATIC
0.005, 1.0, 1.0E-08, 0.025
*BOUNDARY, AMPLITUDE=AMP_ONE_CYCLE
RIGHT_EDGE, 1, 1, 0.10
*OUTPUT, HISTORY, FREQUENCY=1
*NODE OUTPUT, NSET=RIGHT_EDGE
U1, RF1
*END STEP
*STEP, NAME=CYCLE_0872, NLGEOM=NO, INC=160
*STATIC
0.005, 1.0, 1.0E-08, 0.025
*BOUNDARY, AMPLITUDE=AMP_ONE_CYCLE
RIGHT_EDGE, 1, 1, 0.10
*OUTPUT, HISTORY, FREQUENCY=1
*NODE OUTPUT, NSET=RIGHT_EDGE
U1, RF1
*END STEP
*STEP, NAME=CYCLE_0873, NLGEOM=NO, INC=160
*STATIC
0.005, 1.0, 1.0E-08, 0.025
*BOUNDARY, AMPLITUDE=AMP_ONE_CYCLE
RIGHT_EDGE, 1, 1, 0.10
*OUTPUT, HISTORY, FREQUENCY=1
*NODE OUTPUT, NSET=RIGHT_EDGE
U1, RF1
*END STEP
*STEP, NAME=CYCLE_0874, NLGEOM=NO, INC=160
*STATIC
0.005, 1.0, 1.0E-08, 0.025
*BOUNDARY, AMPLITUDE=AMP_ONE_CYCLE
RIGHT_EDGE, 1, 1, 0.10
*OUTPUT, HISTORY, FREQUENCY=1
*NODE OUTPUT, NSET=RIGHT_EDGE
U1, RF1
*END STEP
*STEP, NAME=CYCLE_0875, NLGEOM=NO, INC=160
*STATIC
0.005, 1.0, 1.0E-08, 0.025
*BOUNDARY, AMPLITUDE=AMP_ONE_CYCLE
RIGHT_EDGE, 1, 1, 0.10
*OUTPUT, HISTORY, FREQUENCY=1
*NODE OUTPUT, NSET=RIGHT_EDGE
U1, RF1
*END STEP
*STEP, NAME=CYCLE_0876, NLGEOM=NO, INC=160
*STATIC
0.005, 1.0, 1.0E-08, 0.025
*BOUNDARY, AMPLITUDE=AMP_ONE_CYCLE
RIGHT_EDGE, 1, 1, 0.10
*OUTPUT, HISTORY, FREQUENCY=1
*NODE OUTPUT, NSET=RIGHT_EDGE
U1, RF1
*END STEP
*STEP, NAME=CYCLE_0877, NLGEOM=NO, INC=160
*STATIC
0.005, 1.0, 1.0E-08, 0.025
*BOUNDARY, AMPLITUDE=AMP_ONE_CYCLE
RIGHT_EDGE, 1, 1, 0.10
*OUTPUT, HISTORY, FREQUENCY=1
*NODE OUTPUT, NSET=RIGHT_EDGE
U1, RF1
*END STEP
*STEP, NAME=CYCLE_0878, NLGEOM=NO, INC=160
*STATIC
0.005, 1.0, 1.0E-08, 0.025
*BOUNDARY, AMPLITUDE=AMP_ONE_CYCLE
RIGHT_EDGE, 1, 1, 0.10
*OUTPUT, HISTORY, FREQUENCY=1
*NODE OUTPUT, NSET=RIGHT_EDGE
U1, RF1
*END STEP
*STEP, NAME=CYCLE_0879, NLGEOM=NO, INC=160
*STATIC
0.005, 1.0, 1.0E-08, 0.025
*BOUNDARY, AMPLITUDE=AMP_ONE_CYCLE
RIGHT_EDGE, 1, 1, 0.10
*OUTPUT, HISTORY, FREQUENCY=1
*NODE OUTPUT, NSET=RIGHT_EDGE
U1, RF1
*END STEP
*STEP, NAME=CYCLE_0880, NLGEOM=NO, INC=160
*STATIC
0.005, 1.0, 1.0E-08, 0.025
*BOUNDARY, AMPLITUDE=AMP_ONE_CYCLE
RIGHT_EDGE, 1, 1, 0.10
*OUTPUT, HISTORY, FREQUENCY=1
*NODE OUTPUT, NSET=RIGHT_EDGE
U1, RF1
*END STEP
*STEP, NAME=CYCLE_0881, NLGEOM=NO, INC=160
*STATIC
0.005, 1.0, 1.0E-08, 0.025
*BOUNDARY, AMPLITUDE=AMP_ONE_CYCLE
RIGHT_EDGE, 1, 1, 0.10
*OUTPUT, HISTORY, FREQUENCY=1
*NODE OUTPUT, NSET=RIGHT_EDGE
U1, RF1
*END STEP
*STEP, NAME=CYCLE_0882, NLGEOM=NO, INC=160
*STATIC
0.005, 1.0, 1.0E-08, 0.025
*BOUNDARY, AMPLITUDE=AMP_ONE_CYCLE
RIGHT_EDGE, 1, 1, 0.10
*OUTPUT, HISTORY, FREQUENCY=1
*NODE OUTPUT, NSET=RIGHT_EDGE
U1, RF1
*END STEP
*STEP, NAME=CYCLE_0883, NLGEOM=NO, INC=160
*STATIC
0.005, 1.0, 1.0E-08, 0.025
*BOUNDARY, AMPLITUDE=AMP_ONE_CYCLE
RIGHT_EDGE, 1, 1, 0.10
*OUTPUT, HISTORY, FREQUENCY=1
*NODE OUTPUT, NSET=RIGHT_EDGE
U1, RF1
*END STEP
*STEP, NAME=CYCLE_0884, NLGEOM=NO, INC=160
*STATIC
0.005, 1.0, 1.0E-08, 0.025
*BOUNDARY, AMPLITUDE=AMP_ONE_CYCLE
RIGHT_EDGE, 1, 1, 0.10
*OUTPUT, HISTORY, FREQUENCY=1
*NODE OUTPUT, NSET=RIGHT_EDGE
U1, RF1
*END STEP
*STEP, NAME=CYCLE_0885, NLGEOM=NO, INC=160
*STATIC
0.005, 1.0, 1.0E-08, 0.025
*BOUNDARY, AMPLITUDE=AMP_ONE_CYCLE
RIGHT_EDGE, 1, 1, 0.10
*OUTPUT, HISTORY, FREQUENCY=1
*NODE OUTPUT, NSET=RIGHT_EDGE
U1, RF1
*END STEP
*STEP, NAME=CYCLE_0886, NLGEOM=NO, INC=160
*STATIC
0.005, 1.0, 1.0E-08, 0.025
*BOUNDARY, AMPLITUDE=AMP_ONE_CYCLE
RIGHT_EDGE, 1, 1, 0.10
*OUTPUT, HISTORY, FREQUENCY=1
*NODE OUTPUT, NSET=RIGHT_EDGE
U1, RF1
*END STEP
*STEP, NAME=CYCLE_0887, NLGEOM=NO, INC=160
*STATIC
0.005, 1.0, 1.0E-08, 0.025
*BOUNDARY, AMPLITUDE=AMP_ONE_CYCLE
RIGHT_EDGE, 1, 1, 0.10
*OUTPUT, HISTORY, FREQUENCY=1
*NODE OUTPUT, NSET=RIGHT_EDGE
U1, RF1
*END STEP
*STEP, NAME=CYCLE_0888, NLGEOM=NO, INC=160
*STATIC
0.005, 1.0, 1.0E-08, 0.025
*BOUNDARY, AMPLITUDE=AMP_ONE_CYCLE
RIGHT_EDGE, 1, 1, 0.10
*OUTPUT, HISTORY, FREQUENCY=1
*NODE OUTPUT, NSET=RIGHT_EDGE
U1, RF1
*END STEP
*STEP, NAME=CYCLE_0889, NLGEOM=NO, INC=160
*STATIC
0.005, 1.0, 1.0E-08, 0.025
*BOUNDARY, AMPLITUDE=AMP_ONE_CYCLE
RIGHT_EDGE, 1, 1, 0.10
*OUTPUT, HISTORY, FREQUENCY=1
*NODE OUTPUT, NSET=RIGHT_EDGE
U1, RF1
*END STEP
*STEP, NAME=CYCLE_0890, NLGEOM=NO, INC=160
*STATIC
0.005, 1.0, 1.0E-08, 0.025
*BOUNDARY, AMPLITUDE=AMP_ONE_CYCLE
RIGHT_EDGE, 1, 1, 0.10
*OUTPUT, HISTORY, FREQUENCY=1
*NODE OUTPUT, NSET=RIGHT_EDGE
U1, RF1
*END STEP
*STEP, NAME=CYCLE_0891, NLGEOM=NO, INC=160
*STATIC
0.005, 1.0, 1.0E-08, 0.025
*BOUNDARY, AMPLITUDE=AMP_ONE_CYCLE
RIGHT_EDGE, 1, 1, 0.10
*OUTPUT, HISTORY, FREQUENCY=1
*NODE OUTPUT, NSET=RIGHT_EDGE
U1, RF1
*END STEP
*STEP, NAME=CYCLE_0892, NLGEOM=NO, INC=160
*STATIC
0.005, 1.0, 1.0E-08, 0.025
*BOUNDARY, AMPLITUDE=AMP_ONE_CYCLE
RIGHT_EDGE, 1, 1, 0.10
*OUTPUT, HISTORY, FREQUENCY=1
*NODE OUTPUT, NSET=RIGHT_EDGE
U1, RF1
*END STEP
*STEP, NAME=CYCLE_0893, NLGEOM=NO, INC=160
*STATIC
0.005, 1.0, 1.0E-08, 0.025
*BOUNDARY, AMPLITUDE=AMP_ONE_CYCLE
RIGHT_EDGE, 1, 1, 0.10
*OUTPUT, HISTORY, FREQUENCY=1
*NODE OUTPUT, NSET=RIGHT_EDGE
U1, RF1
*END STEP
*STEP, NAME=CYCLE_0894, NLGEOM=NO, INC=160
*STATIC
0.005, 1.0, 1.0E-08, 0.025
*BOUNDARY, AMPLITUDE=AMP_ONE_CYCLE
RIGHT_EDGE, 1, 1, 0.10
*OUTPUT, HISTORY, FREQUENCY=1
*NODE OUTPUT, NSET=RIGHT_EDGE
U1, RF1
*END STEP
*STEP, NAME=CYCLE_0895, NLGEOM=NO, INC=160
*STATIC
0.005, 1.0, 1.0E-08, 0.025
*BOUNDARY, AMPLITUDE=AMP_ONE_CYCLE
RIGHT_EDGE, 1, 1, 0.10
*OUTPUT, HISTORY, FREQUENCY=1
*NODE OUTPUT, NSET=RIGHT_EDGE
U1, RF1
*END STEP
*STEP, NAME=CYCLE_0896, NLGEOM=NO, INC=160
*STATIC
0.005, 1.0, 1.0E-08, 0.025
*BOUNDARY, AMPLITUDE=AMP_ONE_CYCLE
RIGHT_EDGE, 1, 1, 0.10
*OUTPUT, HISTORY, FREQUENCY=1
*NODE OUTPUT, NSET=RIGHT_EDGE
U1, RF1
*END STEP
*STEP, NAME=CYCLE_0897, NLGEOM=NO, INC=160
*STATIC
0.005, 1.0, 1.0E-08, 0.025
*BOUNDARY, AMPLITUDE=AMP_ONE_CYCLE
RIGHT_EDGE, 1, 1, 0.10
*OUTPUT, HISTORY, FREQUENCY=1
*NODE OUTPUT, NSET=RIGHT_EDGE
U1, RF1
*END STEP
*STEP, NAME=CYCLE_0898, NLGEOM=NO, INC=160
*STATIC
0.005, 1.0, 1.0E-08, 0.025
*BOUNDARY, AMPLITUDE=AMP_ONE_CYCLE
RIGHT_EDGE, 1, 1, 0.10
*OUTPUT, HISTORY, FREQUENCY=1
*NODE OUTPUT, NSET=RIGHT_EDGE
U1, RF1
*END STEP
*STEP, NAME=CYCLE_0899, NLGEOM=NO, INC=160
*STATIC
0.005, 1.0, 1.0E-08, 0.025
*BOUNDARY, AMPLITUDE=AMP_ONE_CYCLE
RIGHT_EDGE, 1, 1, 0.10
*OUTPUT, HISTORY, FREQUENCY=1
*NODE OUTPUT, NSET=RIGHT_EDGE
U1, RF1
*END STEP
*STEP, NAME=CYCLE_0900, NLGEOM=NO, INC=160
*STATIC
0.005, 1.0, 1.0E-08, 0.025
*BOUNDARY, AMPLITUDE=AMP_ONE_CYCLE
RIGHT_EDGE, 1, 1, 0.10
*OUTPUT, HISTORY, FREQUENCY=1
*NODE OUTPUT, NSET=RIGHT_EDGE
U1, RF1
*END STEP
*STEP, NAME=CYCLE_0901, NLGEOM=NO, INC=160
*STATIC
0.005, 1.0, 1.0E-08, 0.025
*BOUNDARY, AMPLITUDE=AMP_ONE_CYCLE
RIGHT_EDGE, 1, 1, 0.10
*OUTPUT, HISTORY, FREQUENCY=1
*NODE OUTPUT, NSET=RIGHT_EDGE
U1, RF1
*END STEP
*STEP, NAME=CYCLE_0902, NLGEOM=NO, INC=160
*STATIC
0.005, 1.0, 1.0E-08, 0.025
*BOUNDARY, AMPLITUDE=AMP_ONE_CYCLE
RIGHT_EDGE, 1, 1, 0.10
*OUTPUT, HISTORY, FREQUENCY=1
*NODE OUTPUT, NSET=RIGHT_EDGE
U1, RF1
*END STEP
*STEP, NAME=CYCLE_0903, NLGEOM=NO, INC=160
*STATIC
0.005, 1.0, 1.0E-08, 0.025
*BOUNDARY, AMPLITUDE=AMP_ONE_CYCLE
RIGHT_EDGE, 1, 1, 0.10
*OUTPUT, HISTORY, FREQUENCY=1
*NODE OUTPUT, NSET=RIGHT_EDGE
U1, RF1
*END STEP
*STEP, NAME=CYCLE_0904, NLGEOM=NO, INC=160
*STATIC
0.005, 1.0, 1.0E-08, 0.025
*BOUNDARY, AMPLITUDE=AMP_ONE_CYCLE
RIGHT_EDGE, 1, 1, 0.10
*OUTPUT, HISTORY, FREQUENCY=1
*NODE OUTPUT, NSET=RIGHT_EDGE
U1, RF1
*END STEP
*STEP, NAME=CYCLE_0905, NLGEOM=NO, INC=160
*STATIC
0.005, 1.0, 1.0E-08, 0.025
*BOUNDARY, AMPLITUDE=AMP_ONE_CYCLE
RIGHT_EDGE, 1, 1, 0.10
*OUTPUT, HISTORY, FREQUENCY=1
*NODE OUTPUT, NSET=RIGHT_EDGE
U1, RF1
*END STEP
*STEP, NAME=CYCLE_0906, NLGEOM=NO, INC=160
*STATIC
0.005, 1.0, 1.0E-08, 0.025
*BOUNDARY, AMPLITUDE=AMP_ONE_CYCLE
RIGHT_EDGE, 1, 1, 0.10
*OUTPUT, HISTORY, FREQUENCY=1
*NODE OUTPUT, NSET=RIGHT_EDGE
U1, RF1
*END STEP
*STEP, NAME=CYCLE_0907, NLGEOM=NO, INC=160
*STATIC
0.005, 1.0, 1.0E-08, 0.025
*BOUNDARY, AMPLITUDE=AMP_ONE_CYCLE
RIGHT_EDGE, 1, 1, 0.10
*OUTPUT, HISTORY, FREQUENCY=1
*NODE OUTPUT, NSET=RIGHT_EDGE
U1, RF1
*END STEP
*STEP, NAME=CYCLE_0908, NLGEOM=NO, INC=160
*STATIC
0.005, 1.0, 1.0E-08, 0.025
*BOUNDARY, AMPLITUDE=AMP_ONE_CYCLE
RIGHT_EDGE, 1, 1, 0.10
*OUTPUT, HISTORY, FREQUENCY=1
*NODE OUTPUT, NSET=RIGHT_EDGE
U1, RF1
*END STEP
*STEP, NAME=CYCLE_0909, NLGEOM=NO, INC=160
*STATIC
0.005, 1.0, 1.0E-08, 0.025
*BOUNDARY, AMPLITUDE=AMP_ONE_CYCLE
RIGHT_EDGE, 1, 1, 0.10
*OUTPUT, HISTORY, FREQUENCY=1
*NODE OUTPUT, NSET=RIGHT_EDGE
U1, RF1
*END STEP
*STEP, NAME=CYCLE_0910, NLGEOM=NO, INC=160
*STATIC
0.005, 1.0, 1.0E-08, 0.025
*BOUNDARY, AMPLITUDE=AMP_ONE_CYCLE
RIGHT_EDGE, 1, 1, 0.10
*OUTPUT, HISTORY, FREQUENCY=1
*NODE OUTPUT, NSET=RIGHT_EDGE
U1, RF1
*END STEP
*STEP, NAME=CYCLE_0911, NLGEOM=NO, INC=160
*STATIC
0.005, 1.0, 1.0E-08, 0.025
*BOUNDARY, AMPLITUDE=AMP_ONE_CYCLE
RIGHT_EDGE, 1, 1, 0.10
*OUTPUT, HISTORY, FREQUENCY=1
*NODE OUTPUT, NSET=RIGHT_EDGE
U1, RF1
*END STEP
*STEP, NAME=CYCLE_0912, NLGEOM=NO, INC=160
*STATIC
0.005, 1.0, 1.0E-08, 0.025
*BOUNDARY, AMPLITUDE=AMP_ONE_CYCLE
RIGHT_EDGE, 1, 1, 0.10
*OUTPUT, HISTORY, FREQUENCY=1
*NODE OUTPUT, NSET=RIGHT_EDGE
U1, RF1
*END STEP
*STEP, NAME=CYCLE_0913, NLGEOM=NO, INC=160
*STATIC
0.005, 1.0, 1.0E-08, 0.025
*BOUNDARY, AMPLITUDE=AMP_ONE_CYCLE
RIGHT_EDGE, 1, 1, 0.10
*OUTPUT, HISTORY, FREQUENCY=1
*NODE OUTPUT, NSET=RIGHT_EDGE
U1, RF1
*END STEP
*STEP, NAME=CYCLE_0914, NLGEOM=NO, INC=160
*STATIC
0.005, 1.0, 1.0E-08, 0.025
*BOUNDARY, AMPLITUDE=AMP_ONE_CYCLE
RIGHT_EDGE, 1, 1, 0.10
*OUTPUT, HISTORY, FREQUENCY=1
*NODE OUTPUT, NSET=RIGHT_EDGE
U1, RF1
*END STEP
*STEP, NAME=CYCLE_0915, NLGEOM=NO, INC=160
*STATIC
0.005, 1.0, 1.0E-08, 0.025
*BOUNDARY, AMPLITUDE=AMP_ONE_CYCLE
RIGHT_EDGE, 1, 1, 0.10
*OUTPUT, HISTORY, FREQUENCY=1
*NODE OUTPUT, NSET=RIGHT_EDGE
U1, RF1
*END STEP
*STEP, NAME=CYCLE_0916, NLGEOM=NO, INC=160
*STATIC
0.005, 1.0, 1.0E-08, 0.025
*BOUNDARY, AMPLITUDE=AMP_ONE_CYCLE
RIGHT_EDGE, 1, 1, 0.10
*OUTPUT, HISTORY, FREQUENCY=1
*NODE OUTPUT, NSET=RIGHT_EDGE
U1, RF1
*END STEP
*STEP, NAME=CYCLE_0917, NLGEOM=NO, INC=160
*STATIC
0.005, 1.0, 1.0E-08, 0.025
*BOUNDARY, AMPLITUDE=AMP_ONE_CYCLE
RIGHT_EDGE, 1, 1, 0.10
*OUTPUT, HISTORY, FREQUENCY=1
*NODE OUTPUT, NSET=RIGHT_EDGE
U1, RF1
*END STEP
*STEP, NAME=CYCLE_0918, NLGEOM=NO, INC=160
*STATIC
0.005, 1.0, 1.0E-08, 0.025
*BOUNDARY, AMPLITUDE=AMP_ONE_CYCLE
RIGHT_EDGE, 1, 1, 0.10
*OUTPUT, HISTORY, FREQUENCY=1
*NODE OUTPUT, NSET=RIGHT_EDGE
U1, RF1
*END STEP
*STEP, NAME=CYCLE_0919, NLGEOM=NO, INC=160
*STATIC
0.005, 1.0, 1.0E-08, 0.025
*BOUNDARY, AMPLITUDE=AMP_ONE_CYCLE
RIGHT_EDGE, 1, 1, 0.10
*OUTPUT, HISTORY, FREQUENCY=1
*NODE OUTPUT, NSET=RIGHT_EDGE
U1, RF1
*END STEP
*STEP, NAME=CYCLE_0920, NLGEOM=NO, INC=160
*STATIC
0.005, 1.0, 1.0E-08, 0.025
*BOUNDARY, AMPLITUDE=AMP_ONE_CYCLE
RIGHT_EDGE, 1, 1, 0.10
*OUTPUT, HISTORY, FREQUENCY=1
*NODE OUTPUT, NSET=RIGHT_EDGE
U1, RF1
*END STEP
*STEP, NAME=CYCLE_0921, NLGEOM=NO, INC=160
*STATIC
0.005, 1.0, 1.0E-08, 0.025
*BOUNDARY, AMPLITUDE=AMP_ONE_CYCLE
RIGHT_EDGE, 1, 1, 0.10
*OUTPUT, HISTORY, FREQUENCY=1
*NODE OUTPUT, NSET=RIGHT_EDGE
U1, RF1
*END STEP
*STEP, NAME=CYCLE_0922, NLGEOM=NO, INC=160
*STATIC
0.005, 1.0, 1.0E-08, 0.025
*BOUNDARY, AMPLITUDE=AMP_ONE_CYCLE
RIGHT_EDGE, 1, 1, 0.10
*OUTPUT, HISTORY, FREQUENCY=1
*NODE OUTPUT, NSET=RIGHT_EDGE
U1, RF1
*END STEP
*STEP, NAME=CYCLE_0923, NLGEOM=NO, INC=160
*STATIC
0.005, 1.0, 1.0E-08, 0.025
*BOUNDARY, AMPLITUDE=AMP_ONE_CYCLE
RIGHT_EDGE, 1, 1, 0.10
*OUTPUT, HISTORY, FREQUENCY=1
*NODE OUTPUT, NSET=RIGHT_EDGE
U1, RF1
*END STEP
*STEP, NAME=CYCLE_0924, NLGEOM=NO, INC=160
*STATIC
0.005, 1.0, 1.0E-08, 0.025
*BOUNDARY, AMPLITUDE=AMP_ONE_CYCLE
RIGHT_EDGE, 1, 1, 0.10
*OUTPUT, HISTORY, FREQUENCY=1
*NODE OUTPUT, NSET=RIGHT_EDGE
U1, RF1
*END STEP
*STEP, NAME=CYCLE_0925, NLGEOM=NO, INC=160
*STATIC
0.005, 1.0, 1.0E-08, 0.025
*BOUNDARY, AMPLITUDE=AMP_ONE_CYCLE
RIGHT_EDGE, 1, 1, 0.10
*OUTPUT, HISTORY, FREQUENCY=1
*NODE OUTPUT, NSET=RIGHT_EDGE
U1, RF1
*END STEP
*STEP, NAME=CYCLE_0926, NLGEOM=NO, INC=160
*STATIC
0.005, 1.0, 1.0E-08, 0.025
*BOUNDARY, AMPLITUDE=AMP_ONE_CYCLE
RIGHT_EDGE, 1, 1, 0.10
*OUTPUT, HISTORY, FREQUENCY=1
*NODE OUTPUT, NSET=RIGHT_EDGE
U1, RF1
*END STEP
*STEP, NAME=CYCLE_0927, NLGEOM=NO, INC=160
*STATIC
0.005, 1.0, 1.0E-08, 0.025
*BOUNDARY, AMPLITUDE=AMP_ONE_CYCLE
RIGHT_EDGE, 1, 1, 0.10
*OUTPUT, HISTORY, FREQUENCY=1
*NODE OUTPUT, NSET=RIGHT_EDGE
U1, RF1
*END STEP
*STEP, NAME=CYCLE_0928, NLGEOM=NO, INC=160
*STATIC
0.005, 1.0, 1.0E-08, 0.025
*BOUNDARY, AMPLITUDE=AMP_ONE_CYCLE
RIGHT_EDGE, 1, 1, 0.10
*OUTPUT, HISTORY, FREQUENCY=1
*NODE OUTPUT, NSET=RIGHT_EDGE
U1, RF1
*END STEP
*STEP, NAME=CYCLE_0929, NLGEOM=NO, INC=160
*STATIC
0.005, 1.0, 1.0E-08, 0.025
*BOUNDARY, AMPLITUDE=AMP_ONE_CYCLE
RIGHT_EDGE, 1, 1, 0.10
*OUTPUT, HISTORY, FREQUENCY=1
*NODE OUTPUT, NSET=RIGHT_EDGE
U1, RF1
*END STEP
*STEP, NAME=CYCLE_0930, NLGEOM=NO, INC=160
*STATIC
0.005, 1.0, 1.0E-08, 0.025
*BOUNDARY, AMPLITUDE=AMP_ONE_CYCLE
RIGHT_EDGE, 1, 1, 0.10
*OUTPUT, HISTORY, FREQUENCY=1
*NODE OUTPUT, NSET=RIGHT_EDGE
U1, RF1
*END STEP
*STEP, NAME=CYCLE_0931, NLGEOM=NO, INC=160
*STATIC
0.005, 1.0, 1.0E-08, 0.025
*BOUNDARY, AMPLITUDE=AMP_ONE_CYCLE
RIGHT_EDGE, 1, 1, 0.10
*OUTPUT, HISTORY, FREQUENCY=1
*NODE OUTPUT, NSET=RIGHT_EDGE
U1, RF1
*END STEP
*STEP, NAME=CYCLE_0932, NLGEOM=NO, INC=160
*STATIC
0.005, 1.0, 1.0E-08, 0.025
*BOUNDARY, AMPLITUDE=AMP_ONE_CYCLE
RIGHT_EDGE, 1, 1, 0.10
*OUTPUT, HISTORY, FREQUENCY=1
*NODE OUTPUT, NSET=RIGHT_EDGE
U1, RF1
*END STEP
*STEP, NAME=CYCLE_0933, NLGEOM=NO, INC=160
*STATIC
0.005, 1.0, 1.0E-08, 0.025
*BOUNDARY, AMPLITUDE=AMP_ONE_CYCLE
RIGHT_EDGE, 1, 1, 0.10
*OUTPUT, HISTORY, FREQUENCY=1
*NODE OUTPUT, NSET=RIGHT_EDGE
U1, RF1
*END STEP
*STEP, NAME=CYCLE_0934, NLGEOM=NO, INC=160
*STATIC
0.005, 1.0, 1.0E-08, 0.025
*BOUNDARY, AMPLITUDE=AMP_ONE_CYCLE
RIGHT_EDGE, 1, 1, 0.10
*OUTPUT, HISTORY, FREQUENCY=1
*NODE OUTPUT, NSET=RIGHT_EDGE
U1, RF1
*END STEP
*STEP, NAME=CYCLE_0935, NLGEOM=NO, INC=160
*STATIC
0.005, 1.0, 1.0E-08, 0.025
*BOUNDARY, AMPLITUDE=AMP_ONE_CYCLE
RIGHT_EDGE, 1, 1, 0.10
*OUTPUT, HISTORY, FREQUENCY=1
*NODE OUTPUT, NSET=RIGHT_EDGE
U1, RF1
*END STEP
*STEP, NAME=CYCLE_0936, NLGEOM=NO, INC=160
*STATIC
0.005, 1.0, 1.0E-08, 0.025
*BOUNDARY, AMPLITUDE=AMP_ONE_CYCLE
RIGHT_EDGE, 1, 1, 0.10
*OUTPUT, HISTORY, FREQUENCY=1
*NODE OUTPUT, NSET=RIGHT_EDGE
U1, RF1
*END STEP
*STEP, NAME=CYCLE_0937, NLGEOM=NO, INC=160
*STATIC
0.005, 1.0, 1.0E-08, 0.025
*BOUNDARY, AMPLITUDE=AMP_ONE_CYCLE
RIGHT_EDGE, 1, 1, 0.10
*OUTPUT, HISTORY, FREQUENCY=1
*NODE OUTPUT, NSET=RIGHT_EDGE
U1, RF1
*END STEP
*STEP, NAME=CYCLE_0938, NLGEOM=NO, INC=160
*STATIC
0.005, 1.0, 1.0E-08, 0.025
*BOUNDARY, AMPLITUDE=AMP_ONE_CYCLE
RIGHT_EDGE, 1, 1, 0.10
*OUTPUT, HISTORY, FREQUENCY=1
*NODE OUTPUT, NSET=RIGHT_EDGE
U1, RF1
*END STEP
*STEP, NAME=CYCLE_0939, NLGEOM=NO, INC=160
*STATIC
0.005, 1.0, 1.0E-08, 0.025
*BOUNDARY, AMPLITUDE=AMP_ONE_CYCLE
RIGHT_EDGE, 1, 1, 0.10
*OUTPUT, HISTORY, FREQUENCY=1
*NODE OUTPUT, NSET=RIGHT_EDGE
U1, RF1
*END STEP
*STEP, NAME=CYCLE_0940, NLGEOM=NO, INC=160
*STATIC
0.005, 1.0, 1.0E-08, 0.025
*BOUNDARY, AMPLITUDE=AMP_ONE_CYCLE
RIGHT_EDGE, 1, 1, 0.10
*OUTPUT, HISTORY, FREQUENCY=1
*NODE OUTPUT, NSET=RIGHT_EDGE
U1, RF1
*END STEP
*STEP, NAME=CYCLE_0941, NLGEOM=NO, INC=160
*STATIC
0.005, 1.0, 1.0E-08, 0.025
*BOUNDARY, AMPLITUDE=AMP_ONE_CYCLE
RIGHT_EDGE, 1, 1, 0.10
*OUTPUT, HISTORY, FREQUENCY=1
*NODE OUTPUT, NSET=RIGHT_EDGE
U1, RF1
*END STEP
*STEP, NAME=CYCLE_0942, NLGEOM=NO, INC=160
*STATIC
0.005, 1.0, 1.0E-08, 0.025
*BOUNDARY, AMPLITUDE=AMP_ONE_CYCLE
RIGHT_EDGE, 1, 1, 0.10
*OUTPUT, HISTORY, FREQUENCY=1
*NODE OUTPUT, NSET=RIGHT_EDGE
U1, RF1
*END STEP
*STEP, NAME=CYCLE_0943, NLGEOM=NO, INC=160
*STATIC
0.005, 1.0, 1.0E-08, 0.025
*BOUNDARY, AMPLITUDE=AMP_ONE_CYCLE
RIGHT_EDGE, 1, 1, 0.10
*OUTPUT, HISTORY, FREQUENCY=1
*NODE OUTPUT, NSET=RIGHT_EDGE
U1, RF1
*END STEP
*STEP, NAME=CYCLE_0944, NLGEOM=NO, INC=160
*STATIC
0.005, 1.0, 1.0E-08, 0.025
*BOUNDARY, AMPLITUDE=AMP_ONE_CYCLE
RIGHT_EDGE, 1, 1, 0.10
*OUTPUT, HISTORY, FREQUENCY=1
*NODE OUTPUT, NSET=RIGHT_EDGE
U1, RF1
*END STEP
*STEP, NAME=CYCLE_0945, NLGEOM=NO, INC=160
*STATIC
0.005, 1.0, 1.0E-08, 0.025
*BOUNDARY, AMPLITUDE=AMP_ONE_CYCLE
RIGHT_EDGE, 1, 1, 0.10
*OUTPUT, HISTORY, FREQUENCY=1
*NODE OUTPUT, NSET=RIGHT_EDGE
U1, RF1
*END STEP
*STEP, NAME=CYCLE_0946, NLGEOM=NO, INC=160
*STATIC
0.005, 1.0, 1.0E-08, 0.025
*BOUNDARY, AMPLITUDE=AMP_ONE_CYCLE
RIGHT_EDGE, 1, 1, 0.10
*OUTPUT, HISTORY, FREQUENCY=1
*NODE OUTPUT, NSET=RIGHT_EDGE
U1, RF1
*END STEP
*STEP, NAME=CYCLE_0947, NLGEOM=NO, INC=160
*STATIC
0.005, 1.0, 1.0E-08, 0.025
*BOUNDARY, AMPLITUDE=AMP_ONE_CYCLE
RIGHT_EDGE, 1, 1, 0.10
*OUTPUT, HISTORY, FREQUENCY=1
*NODE OUTPUT, NSET=RIGHT_EDGE
U1, RF1
*END STEP
*STEP, NAME=CYCLE_0948, NLGEOM=NO, INC=160
*STATIC
0.005, 1.0, 1.0E-08, 0.025
*BOUNDARY, AMPLITUDE=AMP_ONE_CYCLE
RIGHT_EDGE, 1, 1, 0.10
*OUTPUT, HISTORY, FREQUENCY=1
*NODE OUTPUT, NSET=RIGHT_EDGE
U1, RF1
*END STEP
*STEP, NAME=CYCLE_0949, NLGEOM=NO, INC=160
*STATIC
0.005, 1.0, 1.0E-08, 0.025
*BOUNDARY, AMPLITUDE=AMP_ONE_CYCLE
RIGHT_EDGE, 1, 1, 0.10
*OUTPUT, HISTORY, FREQUENCY=1
*NODE OUTPUT, NSET=RIGHT_EDGE
U1, RF1
*END STEP
*STEP, NAME=CYCLE_0950, NLGEOM=NO, INC=160
*STATIC
0.005, 1.0, 1.0E-08, 0.025
*BOUNDARY, AMPLITUDE=AMP_ONE_CYCLE
RIGHT_EDGE, 1, 1, 0.10
*OUTPUT, HISTORY, FREQUENCY=1
*NODE OUTPUT, NSET=RIGHT_EDGE
U1, RF1
*END STEP
*STEP, NAME=CYCLE_0951, NLGEOM=NO, INC=160
*STATIC
0.005, 1.0, 1.0E-08, 0.025
*BOUNDARY, AMPLITUDE=AMP_ONE_CYCLE
RIGHT_EDGE, 1, 1, 0.10
*OUTPUT, HISTORY, FREQUENCY=1
*NODE OUTPUT, NSET=RIGHT_EDGE
U1, RF1
*END STEP
*STEP, NAME=CYCLE_0952, NLGEOM=NO, INC=160
*STATIC
0.005, 1.0, 1.0E-08, 0.025
*BOUNDARY, AMPLITUDE=AMP_ONE_CYCLE
RIGHT_EDGE, 1, 1, 0.10
*OUTPUT, HISTORY, FREQUENCY=1
*NODE OUTPUT, NSET=RIGHT_EDGE
U1, RF1
*END STEP
*STEP, NAME=CYCLE_0953, NLGEOM=NO, INC=160
*STATIC
0.005, 1.0, 1.0E-08, 0.025
*BOUNDARY, AMPLITUDE=AMP_ONE_CYCLE
RIGHT_EDGE, 1, 1, 0.10
*OUTPUT, HISTORY, FREQUENCY=1
*NODE OUTPUT, NSET=RIGHT_EDGE
U1, RF1
*END STEP
*STEP, NAME=CYCLE_0954, NLGEOM=NO, INC=160
*STATIC
0.005, 1.0, 1.0E-08, 0.025
*BOUNDARY, AMPLITUDE=AMP_ONE_CYCLE
RIGHT_EDGE, 1, 1, 0.10
*OUTPUT, HISTORY, FREQUENCY=1
*NODE OUTPUT, NSET=RIGHT_EDGE
U1, RF1
*END STEP
*STEP, NAME=CYCLE_0955, NLGEOM=NO, INC=160
*STATIC
0.005, 1.0, 1.0E-08, 0.025
*BOUNDARY, AMPLITUDE=AMP_ONE_CYCLE
RIGHT_EDGE, 1, 1, 0.10
*OUTPUT, HISTORY, FREQUENCY=1
*NODE OUTPUT, NSET=RIGHT_EDGE
U1, RF1
*END STEP
*STEP, NAME=CYCLE_0956, NLGEOM=NO, INC=160
*STATIC
0.005, 1.0, 1.0E-08, 0.025
*BOUNDARY, AMPLITUDE=AMP_ONE_CYCLE
RIGHT_EDGE, 1, 1, 0.10
*OUTPUT, HISTORY, FREQUENCY=1
*NODE OUTPUT, NSET=RIGHT_EDGE
U1, RF1
*END STEP
*STEP, NAME=CYCLE_0957, NLGEOM=NO, INC=160
*STATIC
0.005, 1.0, 1.0E-08, 0.025
*BOUNDARY, AMPLITUDE=AMP_ONE_CYCLE
RIGHT_EDGE, 1, 1, 0.10
*OUTPUT, HISTORY, FREQUENCY=1
*NODE OUTPUT, NSET=RIGHT_EDGE
U1, RF1
*END STEP
*STEP, NAME=CYCLE_0958, NLGEOM=NO, INC=160
*STATIC
0.005, 1.0, 1.0E-08, 0.025
*BOUNDARY, AMPLITUDE=AMP_ONE_CYCLE
RIGHT_EDGE, 1, 1, 0.10
*OUTPUT, HISTORY, FREQUENCY=1
*NODE OUTPUT, NSET=RIGHT_EDGE
U1, RF1
*END STEP
*STEP, NAME=CYCLE_0959, NLGEOM=NO, INC=160
*STATIC
0.005, 1.0, 1.0E-08, 0.025
*BOUNDARY, AMPLITUDE=AMP_ONE_CYCLE
RIGHT_EDGE, 1, 1, 0.10
*OUTPUT, HISTORY, FREQUENCY=1
*NODE OUTPUT, NSET=RIGHT_EDGE
U1, RF1
*END STEP
*STEP, NAME=CYCLE_0960, NLGEOM=NO, INC=160
*STATIC
0.005, 1.0, 1.0E-08, 0.025
*BOUNDARY, AMPLITUDE=AMP_ONE_CYCLE
RIGHT_EDGE, 1, 1, 0.10
*OUTPUT, HISTORY, FREQUENCY=1
*NODE OUTPUT, NSET=RIGHT_EDGE
U1, RF1
*END STEP
*STEP, NAME=CYCLE_0961, NLGEOM=NO, INC=160
*STATIC
0.005, 1.0, 1.0E-08, 0.025
*BOUNDARY, AMPLITUDE=AMP_ONE_CYCLE
RIGHT_EDGE, 1, 1, 0.10
*OUTPUT, HISTORY, FREQUENCY=1
*NODE OUTPUT, NSET=RIGHT_EDGE
U1, RF1
*END STEP
*STEP, NAME=CYCLE_0962, NLGEOM=NO, INC=160
*STATIC
0.005, 1.0, 1.0E-08, 0.025
*BOUNDARY, AMPLITUDE=AMP_ONE_CYCLE
RIGHT_EDGE, 1, 1, 0.10
*OUTPUT, HISTORY, FREQUENCY=1
*NODE OUTPUT, NSET=RIGHT_EDGE
U1, RF1
*END STEP
*STEP, NAME=CYCLE_0963, NLGEOM=NO, INC=160
*STATIC
0.005, 1.0, 1.0E-08, 0.025
*BOUNDARY, AMPLITUDE=AMP_ONE_CYCLE
RIGHT_EDGE, 1, 1, 0.10
*OUTPUT, HISTORY, FREQUENCY=1
*NODE OUTPUT, NSET=RIGHT_EDGE
U1, RF1
*END STEP
*STEP, NAME=CYCLE_0964, NLGEOM=NO, INC=160
*STATIC
0.005, 1.0, 1.0E-08, 0.025
*BOUNDARY, AMPLITUDE=AMP_ONE_CYCLE
RIGHT_EDGE, 1, 1, 0.10
*OUTPUT, HISTORY, FREQUENCY=1
*NODE OUTPUT, NSET=RIGHT_EDGE
U1, RF1
*END STEP
*STEP, NAME=CYCLE_0965, NLGEOM=NO, INC=160
*STATIC
0.005, 1.0, 1.0E-08, 0.025
*BOUNDARY, AMPLITUDE=AMP_ONE_CYCLE
RIGHT_EDGE, 1, 1, 0.10
*OUTPUT, HISTORY, FREQUENCY=1
*NODE OUTPUT, NSET=RIGHT_EDGE
U1, RF1
*END STEP
*STEP, NAME=CYCLE_0966, NLGEOM=NO, INC=160
*STATIC
0.005, 1.0, 1.0E-08, 0.025
*BOUNDARY, AMPLITUDE=AMP_ONE_CYCLE
RIGHT_EDGE, 1, 1, 0.10
*OUTPUT, HISTORY, FREQUENCY=1
*NODE OUTPUT, NSET=RIGHT_EDGE
U1, RF1
*END STEP
*STEP, NAME=CYCLE_0967, NLGEOM=NO, INC=160
*STATIC
0.005, 1.0, 1.0E-08, 0.025
*BOUNDARY, AMPLITUDE=AMP_ONE_CYCLE
RIGHT_EDGE, 1, 1, 0.10
*OUTPUT, HISTORY, FREQUENCY=1
*NODE OUTPUT, NSET=RIGHT_EDGE
U1, RF1
*END STEP
*STEP, NAME=CYCLE_0968, NLGEOM=NO, INC=160
*STATIC
0.005, 1.0, 1.0E-08, 0.025
*BOUNDARY, AMPLITUDE=AMP_ONE_CYCLE
RIGHT_EDGE, 1, 1, 0.10
*OUTPUT, HISTORY, FREQUENCY=1
*NODE OUTPUT, NSET=RIGHT_EDGE
U1, RF1
*END STEP
*STEP, NAME=CYCLE_0969, NLGEOM=NO, INC=160
*STATIC
0.005, 1.0, 1.0E-08, 0.025
*BOUNDARY, AMPLITUDE=AMP_ONE_CYCLE
RIGHT_EDGE, 1, 1, 0.10
*OUTPUT, HISTORY, FREQUENCY=1
*NODE OUTPUT, NSET=RIGHT_EDGE
U1, RF1
*END STEP
*STEP, NAME=CYCLE_0970, NLGEOM=NO, INC=160
*STATIC
0.005, 1.0, 1.0E-08, 0.025
*BOUNDARY, AMPLITUDE=AMP_ONE_CYCLE
RIGHT_EDGE, 1, 1, 0.10
*OUTPUT, HISTORY, FREQUENCY=1
*NODE OUTPUT, NSET=RIGHT_EDGE
U1, RF1
*END STEP
*STEP, NAME=CYCLE_0971, NLGEOM=NO, INC=160
*STATIC
0.005, 1.0, 1.0E-08, 0.025
*BOUNDARY, AMPLITUDE=AMP_ONE_CYCLE
RIGHT_EDGE, 1, 1, 0.10
*OUTPUT, HISTORY, FREQUENCY=1
*NODE OUTPUT, NSET=RIGHT_EDGE
U1, RF1
*END STEP
*STEP, NAME=CYCLE_0972, NLGEOM=NO, INC=160
*STATIC
0.005, 1.0, 1.0E-08, 0.025
*BOUNDARY, AMPLITUDE=AMP_ONE_CYCLE
RIGHT_EDGE, 1, 1, 0.10
*OUTPUT, HISTORY, FREQUENCY=1
*NODE OUTPUT, NSET=RIGHT_EDGE
U1, RF1
*END STEP
*STEP, NAME=CYCLE_0973, NLGEOM=NO, INC=160
*STATIC
0.005, 1.0, 1.0E-08, 0.025
*BOUNDARY, AMPLITUDE=AMP_ONE_CYCLE
RIGHT_EDGE, 1, 1, 0.10
*OUTPUT, HISTORY, FREQUENCY=1
*NODE OUTPUT, NSET=RIGHT_EDGE
U1, RF1
*END STEP
*STEP, NAME=CYCLE_0974, NLGEOM=NO, INC=160
*STATIC
0.005, 1.0, 1.0E-08, 0.025
*BOUNDARY, AMPLITUDE=AMP_ONE_CYCLE
RIGHT_EDGE, 1, 1, 0.10
*OUTPUT, HISTORY, FREQUENCY=1
*NODE OUTPUT, NSET=RIGHT_EDGE
U1, RF1
*END STEP
*STEP, NAME=CYCLE_0975, NLGEOM=NO, INC=160
*STATIC
0.005, 1.0, 1.0E-08, 0.025
*BOUNDARY, AMPLITUDE=AMP_ONE_CYCLE
RIGHT_EDGE, 1, 1, 0.10
*OUTPUT, HISTORY, FREQUENCY=1
*NODE OUTPUT, NSET=RIGHT_EDGE
U1, RF1
*END STEP
*STEP, NAME=CYCLE_0976, NLGEOM=NO, INC=160
*STATIC
0.005, 1.0, 1.0E-08, 0.025
*BOUNDARY, AMPLITUDE=AMP_ONE_CYCLE
RIGHT_EDGE, 1, 1, 0.10
*OUTPUT, HISTORY, FREQUENCY=1
*NODE OUTPUT, NSET=RIGHT_EDGE
U1, RF1
*END STEP
*STEP, NAME=CYCLE_0977, NLGEOM=NO, INC=160
*STATIC
0.005, 1.0, 1.0E-08, 0.025
*BOUNDARY, AMPLITUDE=AMP_ONE_CYCLE
RIGHT_EDGE, 1, 1, 0.10
*OUTPUT, HISTORY, FREQUENCY=1
*NODE OUTPUT, NSET=RIGHT_EDGE
U1, RF1
*END STEP
*STEP, NAME=CYCLE_0978, NLGEOM=NO, INC=160
*STATIC
0.005, 1.0, 1.0E-08, 0.025
*BOUNDARY, AMPLITUDE=AMP_ONE_CYCLE
RIGHT_EDGE, 1, 1, 0.10
*OUTPUT, HISTORY, FREQUENCY=1
*NODE OUTPUT, NSET=RIGHT_EDGE
U1, RF1
*END STEP
*STEP, NAME=CYCLE_0979, NLGEOM=NO, INC=160
*STATIC
0.005, 1.0, 1.0E-08, 0.025
*BOUNDARY, AMPLITUDE=AMP_ONE_CYCLE
RIGHT_EDGE, 1, 1, 0.10
*OUTPUT, HISTORY, FREQUENCY=1
*NODE OUTPUT, NSET=RIGHT_EDGE
U1, RF1
*END STEP
*STEP, NAME=CYCLE_0980, NLGEOM=NO, INC=160
*STATIC
0.005, 1.0, 1.0E-08, 0.025
*BOUNDARY, AMPLITUDE=AMP_ONE_CYCLE
RIGHT_EDGE, 1, 1, 0.10
*OUTPUT, HISTORY, FREQUENCY=1
*NODE OUTPUT, NSET=RIGHT_EDGE
U1, RF1
*END STEP
*STEP, NAME=CYCLE_0981, NLGEOM=NO, INC=160
*STATIC
0.005, 1.0, 1.0E-08, 0.025
*BOUNDARY, AMPLITUDE=AMP_ONE_CYCLE
RIGHT_EDGE, 1, 1, 0.10
*OUTPUT, HISTORY, FREQUENCY=1
*NODE OUTPUT, NSET=RIGHT_EDGE
U1, RF1
*END STEP
*STEP, NAME=CYCLE_0982, NLGEOM=NO, INC=160
*STATIC
0.005, 1.0, 1.0E-08, 0.025
*BOUNDARY, AMPLITUDE=AMP_ONE_CYCLE
RIGHT_EDGE, 1, 1, 0.10
*OUTPUT, HISTORY, FREQUENCY=1
*NODE OUTPUT, NSET=RIGHT_EDGE
U1, RF1
*END STEP
*STEP, NAME=CYCLE_0983, NLGEOM=NO, INC=160
*STATIC
0.005, 1.0, 1.0E-08, 0.025
*BOUNDARY, AMPLITUDE=AMP_ONE_CYCLE
RIGHT_EDGE, 1, 1, 0.10
*OUTPUT, HISTORY, FREQUENCY=1
*NODE OUTPUT, NSET=RIGHT_EDGE
U1, RF1
*END STEP
*STEP, NAME=CYCLE_0984, NLGEOM=NO, INC=160
*STATIC
0.005, 1.0, 1.0E-08, 0.025
*BOUNDARY, AMPLITUDE=AMP_ONE_CYCLE
RIGHT_EDGE, 1, 1, 0.10
*OUTPUT, HISTORY, FREQUENCY=1
*NODE OUTPUT, NSET=RIGHT_EDGE
U1, RF1
*END STEP
*STEP, NAME=CYCLE_0985, NLGEOM=NO, INC=160
*STATIC
0.005, 1.0, 1.0E-08, 0.025
*BOUNDARY, AMPLITUDE=AMP_ONE_CYCLE
RIGHT_EDGE, 1, 1, 0.10
*OUTPUT, HISTORY, FREQUENCY=1
*NODE OUTPUT, NSET=RIGHT_EDGE
U1, RF1
*END STEP
*STEP, NAME=CYCLE_0986, NLGEOM=NO, INC=160
*STATIC
0.005, 1.0, 1.0E-08, 0.025
*BOUNDARY, AMPLITUDE=AMP_ONE_CYCLE
RIGHT_EDGE, 1, 1, 0.10
*OUTPUT, HISTORY, FREQUENCY=1
*NODE OUTPUT, NSET=RIGHT_EDGE
U1, RF1
*END STEP
*STEP, NAME=CYCLE_0987, NLGEOM=NO, INC=160
*STATIC
0.005, 1.0, 1.0E-08, 0.025
*BOUNDARY, AMPLITUDE=AMP_ONE_CYCLE
RIGHT_EDGE, 1, 1, 0.10
*OUTPUT, HISTORY, FREQUENCY=1
*NODE OUTPUT, NSET=RIGHT_EDGE
U1, RF1
*END STEP
*STEP, NAME=CYCLE_0988, NLGEOM=NO, INC=160
*STATIC
0.005, 1.0, 1.0E-08, 0.025
*BOUNDARY, AMPLITUDE=AMP_ONE_CYCLE
RIGHT_EDGE, 1, 1, 0.10
*OUTPUT, HISTORY, FREQUENCY=1
*NODE OUTPUT, NSET=RIGHT_EDGE
U1, RF1
*END STEP
*STEP, NAME=CYCLE_0989, NLGEOM=NO, INC=160
*STATIC
0.005, 1.0, 1.0E-08, 0.025
*BOUNDARY, AMPLITUDE=AMP_ONE_CYCLE
RIGHT_EDGE, 1, 1, 0.10
*OUTPUT, HISTORY, FREQUENCY=1
*NODE OUTPUT, NSET=RIGHT_EDGE
U1, RF1
*END STEP
*STEP, NAME=CYCLE_0990, NLGEOM=NO, INC=160
*STATIC
0.005, 1.0, 1.0E-08, 0.025
*BOUNDARY, AMPLITUDE=AMP_ONE_CYCLE
RIGHT_EDGE, 1, 1, 0.10
*OUTPUT, HISTORY, FREQUENCY=1
*NODE OUTPUT, NSET=RIGHT_EDGE
U1, RF1
*END STEP
*STEP, NAME=CYCLE_0991, NLGEOM=NO, INC=160
*STATIC
0.005, 1.0, 1.0E-08, 0.025
*BOUNDARY, AMPLITUDE=AMP_ONE_CYCLE
RIGHT_EDGE, 1, 1, 0.10
*OUTPUT, HISTORY, FREQUENCY=1
*NODE OUTPUT, NSET=RIGHT_EDGE
U1, RF1
*END STEP
*STEP, NAME=CYCLE_0992, NLGEOM=NO, INC=160
*STATIC
0.005, 1.0, 1.0E-08, 0.025
*BOUNDARY, AMPLITUDE=AMP_ONE_CYCLE
RIGHT_EDGE, 1, 1, 0.10
*OUTPUT, HISTORY, FREQUENCY=1
*NODE OUTPUT, NSET=RIGHT_EDGE
U1, RF1
*END STEP
*STEP, NAME=CYCLE_0993, NLGEOM=NO, INC=160
*STATIC
0.005, 1.0, 1.0E-08, 0.025
*BOUNDARY, AMPLITUDE=AMP_ONE_CYCLE
RIGHT_EDGE, 1, 1, 0.10
*OUTPUT, HISTORY, FREQUENCY=1
*NODE OUTPUT, NSET=RIGHT_EDGE
U1, RF1
*END STEP
*STEP, NAME=CYCLE_0994, NLGEOM=NO, INC=160
*STATIC
0.005, 1.0, 1.0E-08, 0.025
*BOUNDARY, AMPLITUDE=AMP_ONE_CYCLE
RIGHT_EDGE, 1, 1, 0.10
*OUTPUT, HISTORY, FREQUENCY=1
*NODE OUTPUT, NSET=RIGHT_EDGE
U1, RF1
*END STEP
*STEP, NAME=CYCLE_0995, NLGEOM=NO, INC=160
*STATIC
0.005, 1.0, 1.0E-08, 0.025
*BOUNDARY, AMPLITUDE=AMP_ONE_CYCLE
RIGHT_EDGE, 1, 1, 0.10
*OUTPUT, HISTORY, FREQUENCY=1
*NODE OUTPUT, NSET=RIGHT_EDGE
U1, RF1
*END STEP
*STEP, NAME=CYCLE_0996, NLGEOM=NO, INC=160
*STATIC
0.005, 1.0, 1.0E-08, 0.025
*BOUNDARY, AMPLITUDE=AMP_ONE_CYCLE
RIGHT_EDGE, 1, 1, 0.10
*OUTPUT, HISTORY, FREQUENCY=1
*NODE OUTPUT, NSET=RIGHT_EDGE
U1, RF1
*END STEP
*STEP, NAME=CYCLE_0997, NLGEOM=NO, INC=160
*STATIC
0.005, 1.0, 1.0E-08, 0.025
*BOUNDARY, AMPLITUDE=AMP_ONE_CYCLE
RIGHT_EDGE, 1, 1, 0.10
*OUTPUT, HISTORY, FREQUENCY=1
*NODE OUTPUT, NSET=RIGHT_EDGE
U1, RF1
*END STEP
*STEP, NAME=CYCLE_0998, NLGEOM=NO, INC=160
*STATIC
0.005, 1.0, 1.0E-08, 0.025
*BOUNDARY, AMPLITUDE=AMP_ONE_CYCLE
RIGHT_EDGE, 1, 1, 0.10
*OUTPUT, HISTORY, FREQUENCY=1
*NODE OUTPUT, NSET=RIGHT_EDGE
U1, RF1
*END STEP
*STEP, NAME=CYCLE_0999, NLGEOM=NO, INC=160
*STATIC
0.005, 1.0, 1.0E-08, 0.025
*BOUNDARY, AMPLITUDE=AMP_ONE_CYCLE
RIGHT_EDGE, 1, 1, 0.10
*OUTPUT, HISTORY, FREQUENCY=1
*NODE OUTPUT, NSET=RIGHT_EDGE
U1, RF1
*END STEP
*STEP, NAME=CYCLE_1000, NLGEOM=NO, INC=160
*STATIC
0.005, 1.0, 1.0E-08, 0.025
*RESTART, WRITE, FREQUENCY=1
*BOUNDARY, AMPLITUDE=AMP_ONE_CYCLE
RIGHT_EDGE, 1, 1, 0.10
*OUTPUT, HISTORY, FREQUENCY=1
*NODE OUTPUT, NSET=RIGHT_EDGE
U1, RF1
*OUTPUT, FIELD, NUMBER INTERVAL=4
*NODE OUTPUT
U, RF
*ELEMENT OUTPUT
S, SDV
*END STEP
