** Chaboche-v1 UMAT - Fifty Fully Reversed Cycles at eps_amp=0.005
*HEADING
Chaboche-v1 UMAT - 100 cyclic tension-compression cycles, eps_amp=0.005

** ----------------------------------------------------------------
** PART
** ----------------------------------------------------------------
*PART, NAME=BLOCK
*NODE
1,0.0,0.0,0.0
2,10.0,0.0,0.0
3,10.0,2.0,0.0
4,0.0,2.0,0.0
5,0.0,0.0,2.0
6,10.0,0.0,2.0
7,10.0,2.0,2.0
8,0.0,2.0,2.0
*ELEMENT, TYPE=C3D8, ELSET=BLOCK
1,1,2,3,4,5,6,7,8
*SOLID SECTION, ELSET=BLOCK, MATERIAL=CHABOCHE_VP
*END PART

** ----------------------------------------------------------------
** ASSEMBLY
** ----------------------------------------------------------------
*ASSEMBLY, NAME=ASSEMBLY
*INSTANCE, NAME=BLOCK_INST, PART=BLOCK
*END INSTANCE
*NSET, NSET=LEFT_FACE, INSTANCE=BLOCK_INST
1,4,5,8
*NSET, NSET=RIGHT_FACE, INSTANCE=BLOCK_INST
2,3,6,7
*END ASSEMBLY

** ----------------------------------------------------------------
** MATERIAL
** ----------------------------------------------------------------
*MATERIAL, NAME=CHABOCHE_VP
*DEPVAR
15
*USER MATERIAL, CONSTANTS=9
** E, nu, sigma_y, Q, b, C, gamma, K, m
210000.0, 0.3, 520.0, 200.0, 0.05, 120000.0, 800.0, 1000.0, 5.0

** ----------------------------------------------------------------
** CYCLIC AMPLITUDE: 100 cycles, 0 -> +1 -> 0 -> -1 -> 0 per cycle
** ----------------------------------------------------------------
*AMPLITUDE, NAME=AMP_CYCLIC_100, DEFINITION=TABULAR
0.00, 0.0
0.25, 1.0
0.50, 0.0
0.75, -1.0
1.00, 0.0
1.25, 1.0
1.50, 0.0
1.75, -1.0
2.00, 0.0
2.25, 1.0
2.50, 0.0
2.75, -1.0
3.00, 0.0
3.25, 1.0
3.50, 0.0
3.75, -1.0
4.00, 0.0
4.25, 1.0
4.50, 0.0
4.75, -1.0
5.00, 0.0
5.25, 1.0
5.50, 0.0
5.75, -1.0
6.00, 0.0
6.25, 1.0
6.50, 0.0
6.75, -1.0
7.00, 0.0
7.25, 1.0
7.50, 0.0
7.75, -1.0
8.00, 0.0
8.25, 1.0
8.50, 0.0
8.75, -1.0
9.00, 0.0
9.25, 1.0
9.50, 0.0
9.75, -1.0
10.00, 0.0
10.25, 1.0
10.50, 0.0
10.75, -1.0
11.00, 0.0
11.25, 1.0
11.50, 0.0
11.75, -1.0
12.00, 0.0
12.25, 1.0
12.50, 0.0
12.75, -1.0
13.00, 0.0
13.25, 1.0
13.50, 0.0
13.75, -1.0
14.00, 0.0
14.25, 1.0
14.50, 0.0
14.75, -1.0
15.00, 0.0
15.25, 1.0
15.50, 0.0
15.75, -1.0
16.00, 0.0
16.25, 1.0
16.50, 0.0
16.75, -1.0
17.00, 0.0
17.25, 1.0
17.50, 0.0
17.75, -1.0
18.00, 0.0
18.25, 1.0
18.50, 0.0
18.75, -1.0
19.00, 0.0
19.25, 1.0
19.50, 0.0
19.75, -1.0
20.00, 0.0
20.25, 1.0
20.50, 0.0
20.75, -1.0
21.00, 0.0
21.25, 1.0
21.50, 0.0
21.75, -1.0
22.00, 0.0
22.25, 1.0
22.50, 0.0
22.75, -1.0
23.00, 0.0
23.25, 1.0
23.50, 0.0
23.75, -1.0
24.00, 0.0
24.25, 1.0
24.50, 0.0
24.75, -1.0
25.00, 0.0
25.25, 1.0
25.50, 0.0
25.75, -1.0
26.00, 0.0
26.25, 1.0
26.50, 0.0
26.75, -1.0
27.00, 0.0
27.25, 1.0
27.50, 0.0
27.75, -1.0
28.00, 0.0
28.25, 1.0
28.50, 0.0
28.75, -1.0
29.00, 0.0
29.25, 1.0
29.50, 0.0
29.75, -1.0
30.00, 0.0
30.25, 1.0
30.50, 0.0
30.75, -1.0
31.00, 0.0
31.25, 1.0
31.50, 0.0
31.75, -1.0
32.00, 0.0
32.25, 1.0
32.50, 0.0
32.75, -1.0
33.00, 0.0
33.25, 1.0
33.50, 0.0
33.75, -1.0
34.00, 0.0
34.25, 1.0
34.50, 0.0
34.75, -1.0
35.00, 0.0
35.25, 1.0
35.50, 0.0
35.75, -1.0
36.00, 0.0
36.25, 1.0
36.50, 0.0
36.75, -1.0
37.00, 0.0
37.25, 1.0
37.50, 0.0
37.75, -1.0
38.00, 0.0
38.25, 1.0
38.50, 0.0
38.75, -1.0
39.00, 0.0
39.25, 1.0
39.50, 0.0
39.75, -1.0
40.00, 0.0
40.25, 1.0
40.50, 0.0
40.75, -1.0
41.00, 0.0
41.25, 1.0
41.50, 0.0
41.75, -1.0
42.00, 0.0
42.25, 1.0
42.50, 0.0
42.75, -1.0
43.00, 0.0
43.25, 1.0
43.50, 0.0
43.75, -1.0
44.00, 0.0
44.25, 1.0
44.50, 0.0
44.75, -1.0
45.00, 0.0
45.25, 1.0
45.50, 0.0
45.75, -1.0
46.00, 0.0
46.25, 1.0
46.50, 0.0
46.75, -1.0
47.00, 0.0
47.25, 1.0
47.50, 0.0
47.75, -1.0
48.00, 0.0
48.25, 1.0
48.50, 0.0
48.75, -1.0
49.00, 0.0
49.25, 1.0
49.50, 0.0
49.75, -1.0
50.00, 0.0
50.25, 1.0
50.50, 0.0
50.75, -1.0
51.00, 0.0
51.25, 1.0
51.50, 0.0
51.75, -1.0
52.00, 0.0
52.25, 1.0
52.50, 0.0
52.75, -1.0
53.00, 0.0
53.25, 1.0
53.50, 0.0
53.75, -1.0
54.00, 0.0
54.25, 1.0
54.50, 0.0
54.75, -1.0
55.00, 0.0
55.25, 1.0
55.50, 0.0
55.75, -1.0
56.00, 0.0
56.25, 1.0
56.50, 0.0
56.75, -1.0
57.00, 0.0
57.25, 1.0
57.50, 0.0
57.75, -1.0
58.00, 0.0
58.25, 1.0
58.50, 0.0
58.75, -1.0
59.00, 0.0
59.25, 1.0
59.50, 0.0
59.75, -1.0
60.00, 0.0
60.25, 1.0
60.50, 0.0
60.75, -1.0
61.00, 0.0
61.25, 1.0
61.50, 0.0
61.75, -1.0
62.00, 0.0
62.25, 1.0
62.50, 0.0
62.75, -1.0
63.00, 0.0
63.25, 1.0
63.50, 0.0
63.75, -1.0
64.00, 0.0
64.25, 1.0
64.50, 0.0
64.75, -1.0
65.00, 0.0
65.25, 1.0
65.50, 0.0
65.75, -1.0
66.00, 0.0
66.25, 1.0
66.50, 0.0
66.75, -1.0
67.00, 0.0
67.25, 1.0
67.50, 0.0
67.75, -1.0
68.00, 0.0
68.25, 1.0
68.50, 0.0
68.75, -1.0
69.00, 0.0
69.25, 1.0
69.50, 0.0
69.75, -1.0
70.00, 0.0
70.25, 1.0
70.50, 0.0
70.75, -1.0
71.00, 0.0
71.25, 1.0
71.50, 0.0
71.75, -1.0
72.00, 0.0
72.25, 1.0
72.50, 0.0
72.75, -1.0
73.00, 0.0
73.25, 1.0
73.50, 0.0
73.75, -1.0
74.00, 0.0
74.25, 1.0
74.50, 0.0
74.75, -1.0
75.00, 0.0
75.25, 1.0
75.50, 0.0
75.75, -1.0
76.00, 0.0
76.25, 1.0
76.50, 0.0
76.75, -1.0
77.00, 0.0
77.25, 1.0
77.50, 0.0
77.75, -1.0
78.00, 0.0
78.25, 1.0
78.50, 0.0
78.75, -1.0
79.00, 0.0
79.25, 1.0
79.50, 0.0
79.75, -1.0
80.00, 0.0
80.25, 1.0
80.50, 0.0
80.75, -1.0
81.00, 0.0
81.25, 1.0
81.50, 0.0
81.75, -1.0
82.00, 0.0
82.25, 1.0
82.50, 0.0
82.75, -1.0
83.00, 0.0
83.25, 1.0
83.50, 0.0
83.75, -1.0
84.00, 0.0
84.25, 1.0
84.50, 0.0
84.75, -1.0
85.00, 0.0
85.25, 1.0
85.50, 0.0
85.75, -1.0
86.00, 0.0
86.25, 1.0
86.50, 0.0
86.75, -1.0
87.00, 0.0
87.25, 1.0
87.50, 0.0
87.75, -1.0
88.00, 0.0
88.25, 1.0
88.50, 0.0
88.75, -1.0
89.00, 0.0
89.25, 1.0
89.50, 0.0
89.75, -1.0
90.00, 0.0
90.25, 1.0
90.50, 0.0
90.75, -1.0
91.00, 0.0
91.25, 1.0
91.50, 0.0
91.75, -1.0
92.00, 0.0
92.25, 1.0
92.50, 0.0
92.75, -1.0
93.00, 0.0
93.25, 1.0
93.50, 0.0
93.75, -1.0
94.00, 0.0
94.25, 1.0
94.50, 0.0
94.75, -1.0
95.00, 0.0
95.25, 1.0
95.50, 0.0
95.75, -1.0
96.00, 0.0
96.25, 1.0
96.50, 0.0
96.75, -1.0
97.00, 0.0
97.25, 1.0
97.50, 0.0
97.75, -1.0
98.00, 0.0
98.25, 1.0
98.50, 0.0
98.75, -1.0
99.00, 0.0
99.25, 1.0
99.50, 0.0
99.75, -1.0
100.00, 0.0
** STEP: FIFTY FULLY REVERSED CYCLES
** ----------------------------------------------------------------
*STEP, NAME=CYCLIC_100, NLGEOM=NO, INC=12000
*STATIC
0.001, 100.0, 1.0E-08, 0.02

*BOUNDARY
LEFT_FACE, 1, 1, 0.0
BLOCK_INST.1, 2, 3, 0.0
BLOCK_INST.4, 3, 3, 0.0
*BOUNDARY, AMPLITUDE=AMP_CYCLIC_100
RIGHT_FACE, 1, 1, 0.05

*OUTPUT, FIELD, FREQUENCY=1
*NODE OUTPUT
U, RF
*ELEMENT OUTPUT
S, SDV

*OUTPUT, HISTORY, FREQUENCY=1
*NODE OUTPUT, NSET=RIGHT_FACE
U1, RF1

*END STEP
