** Stage 16N-R2 native restart continuation: R2C1_100_to_250
** No SDVINI/SIGINI and no UMAT overwrite.
*HEADING
Stage 16N-R2 100 to 250 native restart continuation
*RESTART, READ, STEP=100, INC=53
*STEP, NAME=CYCLE_0101, NLGEOM=NO, INC=160
*STATIC
0.005, 1.0, 1.0E-08, 0.025
*BOUNDARY, AMPLITUDE=AMP_ONE_CYCLE
RIGHT_EDGE, 1, 1, 0.10
*OUTPUT, HISTORY, FREQUENCY=1
*NODE OUTPUT, NSET=RIGHT_EDGE
U1, RF1
*END STEP
*STEP, NAME=CYCLE_0102, NLGEOM=NO, INC=160
*STATIC
0.005, 1.0, 1.0E-08, 0.025
*BOUNDARY, AMPLITUDE=AMP_ONE_CYCLE
RIGHT_EDGE, 1, 1, 0.10
*OUTPUT, HISTORY, FREQUENCY=1
*NODE OUTPUT, NSET=RIGHT_EDGE
U1, RF1
*END STEP
*STEP, NAME=CYCLE_0103, NLGEOM=NO, INC=160
*STATIC
0.005, 1.0, 1.0E-08, 0.025
*BOUNDARY, AMPLITUDE=AMP_ONE_CYCLE
RIGHT_EDGE, 1, 1, 0.10
*OUTPUT, HISTORY, FREQUENCY=1
*NODE OUTPUT, NSET=RIGHT_EDGE
U1, RF1
*END STEP
*STEP, NAME=CYCLE_0104, NLGEOM=NO, INC=160
*STATIC
0.005, 1.0, 1.0E-08, 0.025
*BOUNDARY, AMPLITUDE=AMP_ONE_CYCLE
RIGHT_EDGE, 1, 1, 0.10
*OUTPUT, HISTORY, FREQUENCY=1
*NODE OUTPUT, NSET=RIGHT_EDGE
U1, RF1
*END STEP
*STEP, NAME=CYCLE_0105, NLGEOM=NO, INC=160
*STATIC
0.005, 1.0, 1.0E-08, 0.025
*BOUNDARY, AMPLITUDE=AMP_ONE_CYCLE
RIGHT_EDGE, 1, 1, 0.10
*OUTPUT, HISTORY, FREQUENCY=1
*NODE OUTPUT, NSET=RIGHT_EDGE
U1, RF1
*END STEP
*STEP, NAME=CYCLE_0106, NLGEOM=NO, INC=160
*STATIC
0.005, 1.0, 1.0E-08, 0.025
*BOUNDARY, AMPLITUDE=AMP_ONE_CYCLE
RIGHT_EDGE, 1, 1, 0.10
*OUTPUT, HISTORY, FREQUENCY=1
*NODE OUTPUT, NSET=RIGHT_EDGE
U1, RF1
*END STEP
*STEP, NAME=CYCLE_0107, NLGEOM=NO, INC=160
*STATIC
0.005, 1.0, 1.0E-08, 0.025
*BOUNDARY, AMPLITUDE=AMP_ONE_CYCLE
RIGHT_EDGE, 1, 1, 0.10
*OUTPUT, HISTORY, FREQUENCY=1
*NODE OUTPUT, NSET=RIGHT_EDGE
U1, RF1
*END STEP
*STEP, NAME=CYCLE_0108, NLGEOM=NO, INC=160
*STATIC
0.005, 1.0, 1.0E-08, 0.025
*BOUNDARY, AMPLITUDE=AMP_ONE_CYCLE
RIGHT_EDGE, 1, 1, 0.10
*OUTPUT, HISTORY, FREQUENCY=1
*NODE OUTPUT, NSET=RIGHT_EDGE
U1, RF1
*END STEP
*STEP, NAME=CYCLE_0109, NLGEOM=NO, INC=160
*STATIC
0.005, 1.0, 1.0E-08, 0.025
*BOUNDARY, AMPLITUDE=AMP_ONE_CYCLE
RIGHT_EDGE, 1, 1, 0.10
*OUTPUT, HISTORY, FREQUENCY=1
*NODE OUTPUT, NSET=RIGHT_EDGE
U1, RF1
*END STEP
*STEP, NAME=CYCLE_0110, NLGEOM=NO, INC=160
*STATIC
0.005, 1.0, 1.0E-08, 0.025
*BOUNDARY, AMPLITUDE=AMP_ONE_CYCLE
RIGHT_EDGE, 1, 1, 0.10
*OUTPUT, HISTORY, FREQUENCY=1
*NODE OUTPUT, NSET=RIGHT_EDGE
U1, RF1
*END STEP
*STEP, NAME=CYCLE_0111, NLGEOM=NO, INC=160
*STATIC
0.005, 1.0, 1.0E-08, 0.025
*BOUNDARY, AMPLITUDE=AMP_ONE_CYCLE
RIGHT_EDGE, 1, 1, 0.10
*OUTPUT, HISTORY, FREQUENCY=1
*NODE OUTPUT, NSET=RIGHT_EDGE
U1, RF1
*END STEP
*STEP, NAME=CYCLE_0112, NLGEOM=NO, INC=160
*STATIC
0.005, 1.0, 1.0E-08, 0.025
*BOUNDARY, AMPLITUDE=AMP_ONE_CYCLE
RIGHT_EDGE, 1, 1, 0.10
*OUTPUT, HISTORY, FREQUENCY=1
*NODE OUTPUT, NSET=RIGHT_EDGE
U1, RF1
*END STEP
*STEP, NAME=CYCLE_0113, NLGEOM=NO, INC=160
*STATIC
0.005, 1.0, 1.0E-08, 0.025
*BOUNDARY, AMPLITUDE=AMP_ONE_CYCLE
RIGHT_EDGE, 1, 1, 0.10
*OUTPUT, HISTORY, FREQUENCY=1
*NODE OUTPUT, NSET=RIGHT_EDGE
U1, RF1
*END STEP
*STEP, NAME=CYCLE_0114, NLGEOM=NO, INC=160
*STATIC
0.005, 1.0, 1.0E-08, 0.025
*BOUNDARY, AMPLITUDE=AMP_ONE_CYCLE
RIGHT_EDGE, 1, 1, 0.10
*OUTPUT, HISTORY, FREQUENCY=1
*NODE OUTPUT, NSET=RIGHT_EDGE
U1, RF1
*END STEP
*STEP, NAME=CYCLE_0115, NLGEOM=NO, INC=160
*STATIC
0.005, 1.0, 1.0E-08, 0.025
*BOUNDARY, AMPLITUDE=AMP_ONE_CYCLE
RIGHT_EDGE, 1, 1, 0.10
*OUTPUT, HISTORY, FREQUENCY=1
*NODE OUTPUT, NSET=RIGHT_EDGE
U1, RF1
*END STEP
*STEP, NAME=CYCLE_0116, NLGEOM=NO, INC=160
*STATIC
0.005, 1.0, 1.0E-08, 0.025
*BOUNDARY, AMPLITUDE=AMP_ONE_CYCLE
RIGHT_EDGE, 1, 1, 0.10
*OUTPUT, HISTORY, FREQUENCY=1
*NODE OUTPUT, NSET=RIGHT_EDGE
U1, RF1
*END STEP
*STEP, NAME=CYCLE_0117, NLGEOM=NO, INC=160
*STATIC
0.005, 1.0, 1.0E-08, 0.025
*BOUNDARY, AMPLITUDE=AMP_ONE_CYCLE
RIGHT_EDGE, 1, 1, 0.10
*OUTPUT, HISTORY, FREQUENCY=1
*NODE OUTPUT, NSET=RIGHT_EDGE
U1, RF1
*END STEP
*STEP, NAME=CYCLE_0118, NLGEOM=NO, INC=160
*STATIC
0.005, 1.0, 1.0E-08, 0.025
*BOUNDARY, AMPLITUDE=AMP_ONE_CYCLE
RIGHT_EDGE, 1, 1, 0.10
*OUTPUT, HISTORY, FREQUENCY=1
*NODE OUTPUT, NSET=RIGHT_EDGE
U1, RF1
*END STEP
*STEP, NAME=CYCLE_0119, NLGEOM=NO, INC=160
*STATIC
0.005, 1.0, 1.0E-08, 0.025
*BOUNDARY, AMPLITUDE=AMP_ONE_CYCLE
RIGHT_EDGE, 1, 1, 0.10
*OUTPUT, HISTORY, FREQUENCY=1
*NODE OUTPUT, NSET=RIGHT_EDGE
U1, RF1
*END STEP
*STEP, NAME=CYCLE_0120, NLGEOM=NO, INC=160
*STATIC
0.005, 1.0, 1.0E-08, 0.025
*BOUNDARY, AMPLITUDE=AMP_ONE_CYCLE
RIGHT_EDGE, 1, 1, 0.10
*OUTPUT, HISTORY, FREQUENCY=1
*NODE OUTPUT, NSET=RIGHT_EDGE
U1, RF1
*END STEP
*STEP, NAME=CYCLE_0121, NLGEOM=NO, INC=160
*STATIC
0.005, 1.0, 1.0E-08, 0.025
*BOUNDARY, AMPLITUDE=AMP_ONE_CYCLE
RIGHT_EDGE, 1, 1, 0.10
*OUTPUT, HISTORY, FREQUENCY=1
*NODE OUTPUT, NSET=RIGHT_EDGE
U1, RF1
*END STEP
*STEP, NAME=CYCLE_0122, NLGEOM=NO, INC=160
*STATIC
0.005, 1.0, 1.0E-08, 0.025
*BOUNDARY, AMPLITUDE=AMP_ONE_CYCLE
RIGHT_EDGE, 1, 1, 0.10
*OUTPUT, HISTORY, FREQUENCY=1
*NODE OUTPUT, NSET=RIGHT_EDGE
U1, RF1
*END STEP
*STEP, NAME=CYCLE_0123, NLGEOM=NO, INC=160
*STATIC
0.005, 1.0, 1.0E-08, 0.025
*BOUNDARY, AMPLITUDE=AMP_ONE_CYCLE
RIGHT_EDGE, 1, 1, 0.10
*OUTPUT, HISTORY, FREQUENCY=1
*NODE OUTPUT, NSET=RIGHT_EDGE
U1, RF1
*END STEP
*STEP, NAME=CYCLE_0124, NLGEOM=NO, INC=160
*STATIC
0.005, 1.0, 1.0E-08, 0.025
*BOUNDARY, AMPLITUDE=AMP_ONE_CYCLE
RIGHT_EDGE, 1, 1, 0.10
*OUTPUT, HISTORY, FREQUENCY=1
*NODE OUTPUT, NSET=RIGHT_EDGE
U1, RF1
*END STEP
*STEP, NAME=CYCLE_0125, NLGEOM=NO, INC=160
*STATIC
0.005, 1.0, 1.0E-08, 0.025
*BOUNDARY, AMPLITUDE=AMP_ONE_CYCLE
RIGHT_EDGE, 1, 1, 0.10
*OUTPUT, HISTORY, FREQUENCY=1
*NODE OUTPUT, NSET=RIGHT_EDGE
U1, RF1
*END STEP
*STEP, NAME=CYCLE_0126, NLGEOM=NO, INC=160
*STATIC
0.005, 1.0, 1.0E-08, 0.025
*BOUNDARY, AMPLITUDE=AMP_ONE_CYCLE
RIGHT_EDGE, 1, 1, 0.10
*OUTPUT, HISTORY, FREQUENCY=1
*NODE OUTPUT, NSET=RIGHT_EDGE
U1, RF1
*END STEP
*STEP, NAME=CYCLE_0127, NLGEOM=NO, INC=160
*STATIC
0.005, 1.0, 1.0E-08, 0.025
*BOUNDARY, AMPLITUDE=AMP_ONE_CYCLE
RIGHT_EDGE, 1, 1, 0.10
*OUTPUT, HISTORY, FREQUENCY=1
*NODE OUTPUT, NSET=RIGHT_EDGE
U1, RF1
*END STEP
*STEP, NAME=CYCLE_0128, NLGEOM=NO, INC=160
*STATIC
0.005, 1.0, 1.0E-08, 0.025
*BOUNDARY, AMPLITUDE=AMP_ONE_CYCLE
RIGHT_EDGE, 1, 1, 0.10
*OUTPUT, HISTORY, FREQUENCY=1
*NODE OUTPUT, NSET=RIGHT_EDGE
U1, RF1
*END STEP
*STEP, NAME=CYCLE_0129, NLGEOM=NO, INC=160
*STATIC
0.005, 1.0, 1.0E-08, 0.025
*BOUNDARY, AMPLITUDE=AMP_ONE_CYCLE
RIGHT_EDGE, 1, 1, 0.10
*OUTPUT, HISTORY, FREQUENCY=1
*NODE OUTPUT, NSET=RIGHT_EDGE
U1, RF1
*END STEP
*STEP, NAME=CYCLE_0130, NLGEOM=NO, INC=160
*STATIC
0.005, 1.0, 1.0E-08, 0.025
*BOUNDARY, AMPLITUDE=AMP_ONE_CYCLE
RIGHT_EDGE, 1, 1, 0.10
*OUTPUT, HISTORY, FREQUENCY=1
*NODE OUTPUT, NSET=RIGHT_EDGE
U1, RF1
*END STEP
*STEP, NAME=CYCLE_0131, NLGEOM=NO, INC=160
*STATIC
0.005, 1.0, 1.0E-08, 0.025
*BOUNDARY, AMPLITUDE=AMP_ONE_CYCLE
RIGHT_EDGE, 1, 1, 0.10
*OUTPUT, HISTORY, FREQUENCY=1
*NODE OUTPUT, NSET=RIGHT_EDGE
U1, RF1
*END STEP
*STEP, NAME=CYCLE_0132, NLGEOM=NO, INC=160
*STATIC
0.005, 1.0, 1.0E-08, 0.025
*BOUNDARY, AMPLITUDE=AMP_ONE_CYCLE
RIGHT_EDGE, 1, 1, 0.10
*OUTPUT, HISTORY, FREQUENCY=1
*NODE OUTPUT, NSET=RIGHT_EDGE
U1, RF1
*END STEP
*STEP, NAME=CYCLE_0133, NLGEOM=NO, INC=160
*STATIC
0.005, 1.0, 1.0E-08, 0.025
*BOUNDARY, AMPLITUDE=AMP_ONE_CYCLE
RIGHT_EDGE, 1, 1, 0.10
*OUTPUT, HISTORY, FREQUENCY=1
*NODE OUTPUT, NSET=RIGHT_EDGE
U1, RF1
*END STEP
*STEP, NAME=CYCLE_0134, NLGEOM=NO, INC=160
*STATIC
0.005, 1.0, 1.0E-08, 0.025
*BOUNDARY, AMPLITUDE=AMP_ONE_CYCLE
RIGHT_EDGE, 1, 1, 0.10
*OUTPUT, HISTORY, FREQUENCY=1
*NODE OUTPUT, NSET=RIGHT_EDGE
U1, RF1
*END STEP
*STEP, NAME=CYCLE_0135, NLGEOM=NO, INC=160
*STATIC
0.005, 1.0, 1.0E-08, 0.025
*BOUNDARY, AMPLITUDE=AMP_ONE_CYCLE
RIGHT_EDGE, 1, 1, 0.10
*OUTPUT, HISTORY, FREQUENCY=1
*NODE OUTPUT, NSET=RIGHT_EDGE
U1, RF1
*END STEP
*STEP, NAME=CYCLE_0136, NLGEOM=NO, INC=160
*STATIC
0.005, 1.0, 1.0E-08, 0.025
*BOUNDARY, AMPLITUDE=AMP_ONE_CYCLE
RIGHT_EDGE, 1, 1, 0.10
*OUTPUT, HISTORY, FREQUENCY=1
*NODE OUTPUT, NSET=RIGHT_EDGE
U1, RF1
*END STEP
*STEP, NAME=CYCLE_0137, NLGEOM=NO, INC=160
*STATIC
0.005, 1.0, 1.0E-08, 0.025
*BOUNDARY, AMPLITUDE=AMP_ONE_CYCLE
RIGHT_EDGE, 1, 1, 0.10
*OUTPUT, HISTORY, FREQUENCY=1
*NODE OUTPUT, NSET=RIGHT_EDGE
U1, RF1
*END STEP
*STEP, NAME=CYCLE_0138, NLGEOM=NO, INC=160
*STATIC
0.005, 1.0, 1.0E-08, 0.025
*BOUNDARY, AMPLITUDE=AMP_ONE_CYCLE
RIGHT_EDGE, 1, 1, 0.10
*OUTPUT, HISTORY, FREQUENCY=1
*NODE OUTPUT, NSET=RIGHT_EDGE
U1, RF1
*END STEP
*STEP, NAME=CYCLE_0139, NLGEOM=NO, INC=160
*STATIC
0.005, 1.0, 1.0E-08, 0.025
*BOUNDARY, AMPLITUDE=AMP_ONE_CYCLE
RIGHT_EDGE, 1, 1, 0.10
*OUTPUT, HISTORY, FREQUENCY=1
*NODE OUTPUT, NSET=RIGHT_EDGE
U1, RF1
*END STEP
*STEP, NAME=CYCLE_0140, NLGEOM=NO, INC=160
*STATIC
0.005, 1.0, 1.0E-08, 0.025
*BOUNDARY, AMPLITUDE=AMP_ONE_CYCLE
RIGHT_EDGE, 1, 1, 0.10
*OUTPUT, HISTORY, FREQUENCY=1
*NODE OUTPUT, NSET=RIGHT_EDGE
U1, RF1
*END STEP
*STEP, NAME=CYCLE_0141, NLGEOM=NO, INC=160
*STATIC
0.005, 1.0, 1.0E-08, 0.025
*BOUNDARY, AMPLITUDE=AMP_ONE_CYCLE
RIGHT_EDGE, 1, 1, 0.10
*OUTPUT, HISTORY, FREQUENCY=1
*NODE OUTPUT, NSET=RIGHT_EDGE
U1, RF1
*END STEP
*STEP, NAME=CYCLE_0142, NLGEOM=NO, INC=160
*STATIC
0.005, 1.0, 1.0E-08, 0.025
*BOUNDARY, AMPLITUDE=AMP_ONE_CYCLE
RIGHT_EDGE, 1, 1, 0.10
*OUTPUT, HISTORY, FREQUENCY=1
*NODE OUTPUT, NSET=RIGHT_EDGE
U1, RF1
*END STEP
*STEP, NAME=CYCLE_0143, NLGEOM=NO, INC=160
*STATIC
0.005, 1.0, 1.0E-08, 0.025
*BOUNDARY, AMPLITUDE=AMP_ONE_CYCLE
RIGHT_EDGE, 1, 1, 0.10
*OUTPUT, HISTORY, FREQUENCY=1
*NODE OUTPUT, NSET=RIGHT_EDGE
U1, RF1
*END STEP
*STEP, NAME=CYCLE_0144, NLGEOM=NO, INC=160
*STATIC
0.005, 1.0, 1.0E-08, 0.025
*BOUNDARY, AMPLITUDE=AMP_ONE_CYCLE
RIGHT_EDGE, 1, 1, 0.10
*OUTPUT, HISTORY, FREQUENCY=1
*NODE OUTPUT, NSET=RIGHT_EDGE
U1, RF1
*END STEP
*STEP, NAME=CYCLE_0145, NLGEOM=NO, INC=160
*STATIC
0.005, 1.0, 1.0E-08, 0.025
*BOUNDARY, AMPLITUDE=AMP_ONE_CYCLE
RIGHT_EDGE, 1, 1, 0.10
*OUTPUT, HISTORY, FREQUENCY=1
*NODE OUTPUT, NSET=RIGHT_EDGE
U1, RF1
*END STEP
*STEP, NAME=CYCLE_0146, NLGEOM=NO, INC=160
*STATIC
0.005, 1.0, 1.0E-08, 0.025
*BOUNDARY, AMPLITUDE=AMP_ONE_CYCLE
RIGHT_EDGE, 1, 1, 0.10
*OUTPUT, HISTORY, FREQUENCY=1
*NODE OUTPUT, NSET=RIGHT_EDGE
U1, RF1
*END STEP
*STEP, NAME=CYCLE_0147, NLGEOM=NO, INC=160
*STATIC
0.005, 1.0, 1.0E-08, 0.025
*BOUNDARY, AMPLITUDE=AMP_ONE_CYCLE
RIGHT_EDGE, 1, 1, 0.10
*OUTPUT, HISTORY, FREQUENCY=1
*NODE OUTPUT, NSET=RIGHT_EDGE
U1, RF1
*END STEP
*STEP, NAME=CYCLE_0148, NLGEOM=NO, INC=160
*STATIC
0.005, 1.0, 1.0E-08, 0.025
*BOUNDARY, AMPLITUDE=AMP_ONE_CYCLE
RIGHT_EDGE, 1, 1, 0.10
*OUTPUT, HISTORY, FREQUENCY=1
*NODE OUTPUT, NSET=RIGHT_EDGE
U1, RF1
*END STEP
*STEP, NAME=CYCLE_0149, NLGEOM=NO, INC=160
*STATIC
0.005, 1.0, 1.0E-08, 0.025
*BOUNDARY, AMPLITUDE=AMP_ONE_CYCLE
RIGHT_EDGE, 1, 1, 0.10
*OUTPUT, HISTORY, FREQUENCY=1
*NODE OUTPUT, NSET=RIGHT_EDGE
U1, RF1
*END STEP
*STEP, NAME=CYCLE_0150, NLGEOM=NO, INC=160
*STATIC
0.005, 1.0, 1.0E-08, 0.025
*BOUNDARY, AMPLITUDE=AMP_ONE_CYCLE
RIGHT_EDGE, 1, 1, 0.10
*OUTPUT, HISTORY, FREQUENCY=1
*NODE OUTPUT, NSET=RIGHT_EDGE
U1, RF1
*END STEP
*STEP, NAME=CYCLE_0151, NLGEOM=NO, INC=160
*STATIC
0.005, 1.0, 1.0E-08, 0.025
*BOUNDARY, AMPLITUDE=AMP_ONE_CYCLE
RIGHT_EDGE, 1, 1, 0.10
*OUTPUT, HISTORY, FREQUENCY=1
*NODE OUTPUT, NSET=RIGHT_EDGE
U1, RF1
*END STEP
*STEP, NAME=CYCLE_0152, NLGEOM=NO, INC=160
*STATIC
0.005, 1.0, 1.0E-08, 0.025
*BOUNDARY, AMPLITUDE=AMP_ONE_CYCLE
RIGHT_EDGE, 1, 1, 0.10
*OUTPUT, HISTORY, FREQUENCY=1
*NODE OUTPUT, NSET=RIGHT_EDGE
U1, RF1
*END STEP
*STEP, NAME=CYCLE_0153, NLGEOM=NO, INC=160
*STATIC
0.005, 1.0, 1.0E-08, 0.025
*BOUNDARY, AMPLITUDE=AMP_ONE_CYCLE
RIGHT_EDGE, 1, 1, 0.10
*OUTPUT, HISTORY, FREQUENCY=1
*NODE OUTPUT, NSET=RIGHT_EDGE
U1, RF1
*END STEP
*STEP, NAME=CYCLE_0154, NLGEOM=NO, INC=160
*STATIC
0.005, 1.0, 1.0E-08, 0.025
*BOUNDARY, AMPLITUDE=AMP_ONE_CYCLE
RIGHT_EDGE, 1, 1, 0.10
*OUTPUT, HISTORY, FREQUENCY=1
*NODE OUTPUT, NSET=RIGHT_EDGE
U1, RF1
*END STEP
*STEP, NAME=CYCLE_0155, NLGEOM=NO, INC=160
*STATIC
0.005, 1.0, 1.0E-08, 0.025
*BOUNDARY, AMPLITUDE=AMP_ONE_CYCLE
RIGHT_EDGE, 1, 1, 0.10
*OUTPUT, HISTORY, FREQUENCY=1
*NODE OUTPUT, NSET=RIGHT_EDGE
U1, RF1
*END STEP
*STEP, NAME=CYCLE_0156, NLGEOM=NO, INC=160
*STATIC
0.005, 1.0, 1.0E-08, 0.025
*BOUNDARY, AMPLITUDE=AMP_ONE_CYCLE
RIGHT_EDGE, 1, 1, 0.10
*OUTPUT, HISTORY, FREQUENCY=1
*NODE OUTPUT, NSET=RIGHT_EDGE
U1, RF1
*END STEP
*STEP, NAME=CYCLE_0157, NLGEOM=NO, INC=160
*STATIC
0.005, 1.0, 1.0E-08, 0.025
*BOUNDARY, AMPLITUDE=AMP_ONE_CYCLE
RIGHT_EDGE, 1, 1, 0.10
*OUTPUT, HISTORY, FREQUENCY=1
*NODE OUTPUT, NSET=RIGHT_EDGE
U1, RF1
*END STEP
*STEP, NAME=CYCLE_0158, NLGEOM=NO, INC=160
*STATIC
0.005, 1.0, 1.0E-08, 0.025
*BOUNDARY, AMPLITUDE=AMP_ONE_CYCLE
RIGHT_EDGE, 1, 1, 0.10
*OUTPUT, HISTORY, FREQUENCY=1
*NODE OUTPUT, NSET=RIGHT_EDGE
U1, RF1
*END STEP
*STEP, NAME=CYCLE_0159, NLGEOM=NO, INC=160
*STATIC
0.005, 1.0, 1.0E-08, 0.025
*BOUNDARY, AMPLITUDE=AMP_ONE_CYCLE
RIGHT_EDGE, 1, 1, 0.10
*OUTPUT, HISTORY, FREQUENCY=1
*NODE OUTPUT, NSET=RIGHT_EDGE
U1, RF1
*END STEP
*STEP, NAME=CYCLE_0160, NLGEOM=NO, INC=160
*STATIC
0.005, 1.0, 1.0E-08, 0.025
*BOUNDARY, AMPLITUDE=AMP_ONE_CYCLE
RIGHT_EDGE, 1, 1, 0.10
*OUTPUT, HISTORY, FREQUENCY=1
*NODE OUTPUT, NSET=RIGHT_EDGE
U1, RF1
*END STEP
*STEP, NAME=CYCLE_0161, NLGEOM=NO, INC=160
*STATIC
0.005, 1.0, 1.0E-08, 0.025
*BOUNDARY, AMPLITUDE=AMP_ONE_CYCLE
RIGHT_EDGE, 1, 1, 0.10
*OUTPUT, HISTORY, FREQUENCY=1
*NODE OUTPUT, NSET=RIGHT_EDGE
U1, RF1
*END STEP
*STEP, NAME=CYCLE_0162, NLGEOM=NO, INC=160
*STATIC
0.005, 1.0, 1.0E-08, 0.025
*BOUNDARY, AMPLITUDE=AMP_ONE_CYCLE
RIGHT_EDGE, 1, 1, 0.10
*OUTPUT, HISTORY, FREQUENCY=1
*NODE OUTPUT, NSET=RIGHT_EDGE
U1, RF1
*END STEP
*STEP, NAME=CYCLE_0163, NLGEOM=NO, INC=160
*STATIC
0.005, 1.0, 1.0E-08, 0.025
*BOUNDARY, AMPLITUDE=AMP_ONE_CYCLE
RIGHT_EDGE, 1, 1, 0.10
*OUTPUT, HISTORY, FREQUENCY=1
*NODE OUTPUT, NSET=RIGHT_EDGE
U1, RF1
*END STEP
*STEP, NAME=CYCLE_0164, NLGEOM=NO, INC=160
*STATIC
0.005, 1.0, 1.0E-08, 0.025
*BOUNDARY, AMPLITUDE=AMP_ONE_CYCLE
RIGHT_EDGE, 1, 1, 0.10
*OUTPUT, HISTORY, FREQUENCY=1
*NODE OUTPUT, NSET=RIGHT_EDGE
U1, RF1
*END STEP
*STEP, NAME=CYCLE_0165, NLGEOM=NO, INC=160
*STATIC
0.005, 1.0, 1.0E-08, 0.025
*BOUNDARY, AMPLITUDE=AMP_ONE_CYCLE
RIGHT_EDGE, 1, 1, 0.10
*OUTPUT, HISTORY, FREQUENCY=1
*NODE OUTPUT, NSET=RIGHT_EDGE
U1, RF1
*END STEP
*STEP, NAME=CYCLE_0166, NLGEOM=NO, INC=160
*STATIC
0.005, 1.0, 1.0E-08, 0.025
*BOUNDARY, AMPLITUDE=AMP_ONE_CYCLE
RIGHT_EDGE, 1, 1, 0.10
*OUTPUT, HISTORY, FREQUENCY=1
*NODE OUTPUT, NSET=RIGHT_EDGE
U1, RF1
*END STEP
*STEP, NAME=CYCLE_0167, NLGEOM=NO, INC=160
*STATIC
0.005, 1.0, 1.0E-08, 0.025
*BOUNDARY, AMPLITUDE=AMP_ONE_CYCLE
RIGHT_EDGE, 1, 1, 0.10
*OUTPUT, HISTORY, FREQUENCY=1
*NODE OUTPUT, NSET=RIGHT_EDGE
U1, RF1
*END STEP
*STEP, NAME=CYCLE_0168, NLGEOM=NO, INC=160
*STATIC
0.005, 1.0, 1.0E-08, 0.025
*BOUNDARY, AMPLITUDE=AMP_ONE_CYCLE
RIGHT_EDGE, 1, 1, 0.10
*OUTPUT, HISTORY, FREQUENCY=1
*NODE OUTPUT, NSET=RIGHT_EDGE
U1, RF1
*END STEP
*STEP, NAME=CYCLE_0169, NLGEOM=NO, INC=160
*STATIC
0.005, 1.0, 1.0E-08, 0.025
*BOUNDARY, AMPLITUDE=AMP_ONE_CYCLE
RIGHT_EDGE, 1, 1, 0.10
*OUTPUT, HISTORY, FREQUENCY=1
*NODE OUTPUT, NSET=RIGHT_EDGE
U1, RF1
*END STEP
*STEP, NAME=CYCLE_0170, NLGEOM=NO, INC=160
*STATIC
0.005, 1.0, 1.0E-08, 0.025
*BOUNDARY, AMPLITUDE=AMP_ONE_CYCLE
RIGHT_EDGE, 1, 1, 0.10
*OUTPUT, HISTORY, FREQUENCY=1
*NODE OUTPUT, NSET=RIGHT_EDGE
U1, RF1
*END STEP
*STEP, NAME=CYCLE_0171, NLGEOM=NO, INC=160
*STATIC
0.005, 1.0, 1.0E-08, 0.025
*BOUNDARY, AMPLITUDE=AMP_ONE_CYCLE
RIGHT_EDGE, 1, 1, 0.10
*OUTPUT, HISTORY, FREQUENCY=1
*NODE OUTPUT, NSET=RIGHT_EDGE
U1, RF1
*END STEP
*STEP, NAME=CYCLE_0172, NLGEOM=NO, INC=160
*STATIC
0.005, 1.0, 1.0E-08, 0.025
*BOUNDARY, AMPLITUDE=AMP_ONE_CYCLE
RIGHT_EDGE, 1, 1, 0.10
*OUTPUT, HISTORY, FREQUENCY=1
*NODE OUTPUT, NSET=RIGHT_EDGE
U1, RF1
*END STEP
*STEP, NAME=CYCLE_0173, NLGEOM=NO, INC=160
*STATIC
0.005, 1.0, 1.0E-08, 0.025
*BOUNDARY, AMPLITUDE=AMP_ONE_CYCLE
RIGHT_EDGE, 1, 1, 0.10
*OUTPUT, HISTORY, FREQUENCY=1
*NODE OUTPUT, NSET=RIGHT_EDGE
U1, RF1
*END STEP
*STEP, NAME=CYCLE_0174, NLGEOM=NO, INC=160
*STATIC
0.005, 1.0, 1.0E-08, 0.025
*BOUNDARY, AMPLITUDE=AMP_ONE_CYCLE
RIGHT_EDGE, 1, 1, 0.10
*OUTPUT, HISTORY, FREQUENCY=1
*NODE OUTPUT, NSET=RIGHT_EDGE
U1, RF1
*END STEP
*STEP, NAME=CYCLE_0175, NLGEOM=NO, INC=160
*STATIC
0.005, 1.0, 1.0E-08, 0.025
*BOUNDARY, AMPLITUDE=AMP_ONE_CYCLE
RIGHT_EDGE, 1, 1, 0.10
*OUTPUT, HISTORY, FREQUENCY=1
*NODE OUTPUT, NSET=RIGHT_EDGE
U1, RF1
*END STEP
*STEP, NAME=CYCLE_0176, NLGEOM=NO, INC=160
*STATIC
0.005, 1.0, 1.0E-08, 0.025
*BOUNDARY, AMPLITUDE=AMP_ONE_CYCLE
RIGHT_EDGE, 1, 1, 0.10
*OUTPUT, HISTORY, FREQUENCY=1
*NODE OUTPUT, NSET=RIGHT_EDGE
U1, RF1
*END STEP
*STEP, NAME=CYCLE_0177, NLGEOM=NO, INC=160
*STATIC
0.005, 1.0, 1.0E-08, 0.025
*BOUNDARY, AMPLITUDE=AMP_ONE_CYCLE
RIGHT_EDGE, 1, 1, 0.10
*OUTPUT, HISTORY, FREQUENCY=1
*NODE OUTPUT, NSET=RIGHT_EDGE
U1, RF1
*END STEP
*STEP, NAME=CYCLE_0178, NLGEOM=NO, INC=160
*STATIC
0.005, 1.0, 1.0E-08, 0.025
*BOUNDARY, AMPLITUDE=AMP_ONE_CYCLE
RIGHT_EDGE, 1, 1, 0.10
*OUTPUT, HISTORY, FREQUENCY=1
*NODE OUTPUT, NSET=RIGHT_EDGE
U1, RF1
*END STEP
*STEP, NAME=CYCLE_0179, NLGEOM=NO, INC=160
*STATIC
0.005, 1.0, 1.0E-08, 0.025
*BOUNDARY, AMPLITUDE=AMP_ONE_CYCLE
RIGHT_EDGE, 1, 1, 0.10
*OUTPUT, HISTORY, FREQUENCY=1
*NODE OUTPUT, NSET=RIGHT_EDGE
U1, RF1
*END STEP
*STEP, NAME=CYCLE_0180, NLGEOM=NO, INC=160
*STATIC
0.005, 1.0, 1.0E-08, 0.025
*BOUNDARY, AMPLITUDE=AMP_ONE_CYCLE
RIGHT_EDGE, 1, 1, 0.10
*OUTPUT, HISTORY, FREQUENCY=1
*NODE OUTPUT, NSET=RIGHT_EDGE
U1, RF1
*END STEP
*STEP, NAME=CYCLE_0181, NLGEOM=NO, INC=160
*STATIC
0.005, 1.0, 1.0E-08, 0.025
*BOUNDARY, AMPLITUDE=AMP_ONE_CYCLE
RIGHT_EDGE, 1, 1, 0.10
*OUTPUT, HISTORY, FREQUENCY=1
*NODE OUTPUT, NSET=RIGHT_EDGE
U1, RF1
*END STEP
*STEP, NAME=CYCLE_0182, NLGEOM=NO, INC=160
*STATIC
0.005, 1.0, 1.0E-08, 0.025
*BOUNDARY, AMPLITUDE=AMP_ONE_CYCLE
RIGHT_EDGE, 1, 1, 0.10
*OUTPUT, HISTORY, FREQUENCY=1
*NODE OUTPUT, NSET=RIGHT_EDGE
U1, RF1
*END STEP
*STEP, NAME=CYCLE_0183, NLGEOM=NO, INC=160
*STATIC
0.005, 1.0, 1.0E-08, 0.025
*BOUNDARY, AMPLITUDE=AMP_ONE_CYCLE
RIGHT_EDGE, 1, 1, 0.10
*OUTPUT, HISTORY, FREQUENCY=1
*NODE OUTPUT, NSET=RIGHT_EDGE
U1, RF1
*END STEP
*STEP, NAME=CYCLE_0184, NLGEOM=NO, INC=160
*STATIC
0.005, 1.0, 1.0E-08, 0.025
*BOUNDARY, AMPLITUDE=AMP_ONE_CYCLE
RIGHT_EDGE, 1, 1, 0.10
*OUTPUT, HISTORY, FREQUENCY=1
*NODE OUTPUT, NSET=RIGHT_EDGE
U1, RF1
*END STEP
*STEP, NAME=CYCLE_0185, NLGEOM=NO, INC=160
*STATIC
0.005, 1.0, 1.0E-08, 0.025
*BOUNDARY, AMPLITUDE=AMP_ONE_CYCLE
RIGHT_EDGE, 1, 1, 0.10
*OUTPUT, HISTORY, FREQUENCY=1
*NODE OUTPUT, NSET=RIGHT_EDGE
U1, RF1
*END STEP
*STEP, NAME=CYCLE_0186, NLGEOM=NO, INC=160
*STATIC
0.005, 1.0, 1.0E-08, 0.025
*BOUNDARY, AMPLITUDE=AMP_ONE_CYCLE
RIGHT_EDGE, 1, 1, 0.10
*OUTPUT, HISTORY, FREQUENCY=1
*NODE OUTPUT, NSET=RIGHT_EDGE
U1, RF1
*END STEP
*STEP, NAME=CYCLE_0187, NLGEOM=NO, INC=160
*STATIC
0.005, 1.0, 1.0E-08, 0.025
*BOUNDARY, AMPLITUDE=AMP_ONE_CYCLE
RIGHT_EDGE, 1, 1, 0.10
*OUTPUT, HISTORY, FREQUENCY=1
*NODE OUTPUT, NSET=RIGHT_EDGE
U1, RF1
*END STEP
*STEP, NAME=CYCLE_0188, NLGEOM=NO, INC=160
*STATIC
0.005, 1.0, 1.0E-08, 0.025
*BOUNDARY, AMPLITUDE=AMP_ONE_CYCLE
RIGHT_EDGE, 1, 1, 0.10
*OUTPUT, HISTORY, FREQUENCY=1
*NODE OUTPUT, NSET=RIGHT_EDGE
U1, RF1
*END STEP
*STEP, NAME=CYCLE_0189, NLGEOM=NO, INC=160
*STATIC
0.005, 1.0, 1.0E-08, 0.025
*BOUNDARY, AMPLITUDE=AMP_ONE_CYCLE
RIGHT_EDGE, 1, 1, 0.10
*OUTPUT, HISTORY, FREQUENCY=1
*NODE OUTPUT, NSET=RIGHT_EDGE
U1, RF1
*END STEP
*STEP, NAME=CYCLE_0190, NLGEOM=NO, INC=160
*STATIC
0.005, 1.0, 1.0E-08, 0.025
*BOUNDARY, AMPLITUDE=AMP_ONE_CYCLE
RIGHT_EDGE, 1, 1, 0.10
*OUTPUT, HISTORY, FREQUENCY=1
*NODE OUTPUT, NSET=RIGHT_EDGE
U1, RF1
*END STEP
*STEP, NAME=CYCLE_0191, NLGEOM=NO, INC=160
*STATIC
0.005, 1.0, 1.0E-08, 0.025
*BOUNDARY, AMPLITUDE=AMP_ONE_CYCLE
RIGHT_EDGE, 1, 1, 0.10
*OUTPUT, HISTORY, FREQUENCY=1
*NODE OUTPUT, NSET=RIGHT_EDGE
U1, RF1
*END STEP
*STEP, NAME=CYCLE_0192, NLGEOM=NO, INC=160
*STATIC
0.005, 1.0, 1.0E-08, 0.025
*BOUNDARY, AMPLITUDE=AMP_ONE_CYCLE
RIGHT_EDGE, 1, 1, 0.10
*OUTPUT, HISTORY, FREQUENCY=1
*NODE OUTPUT, NSET=RIGHT_EDGE
U1, RF1
*END STEP
*STEP, NAME=CYCLE_0193, NLGEOM=NO, INC=160
*STATIC
0.005, 1.0, 1.0E-08, 0.025
*BOUNDARY, AMPLITUDE=AMP_ONE_CYCLE
RIGHT_EDGE, 1, 1, 0.10
*OUTPUT, HISTORY, FREQUENCY=1
*NODE OUTPUT, NSET=RIGHT_EDGE
U1, RF1
*END STEP
*STEP, NAME=CYCLE_0194, NLGEOM=NO, INC=160
*STATIC
0.005, 1.0, 1.0E-08, 0.025
*BOUNDARY, AMPLITUDE=AMP_ONE_CYCLE
RIGHT_EDGE, 1, 1, 0.10
*OUTPUT, HISTORY, FREQUENCY=1
*NODE OUTPUT, NSET=RIGHT_EDGE
U1, RF1
*END STEP
*STEP, NAME=CYCLE_0195, NLGEOM=NO, INC=160
*STATIC
0.005, 1.0, 1.0E-08, 0.025
*BOUNDARY, AMPLITUDE=AMP_ONE_CYCLE
RIGHT_EDGE, 1, 1, 0.10
*OUTPUT, HISTORY, FREQUENCY=1
*NODE OUTPUT, NSET=RIGHT_EDGE
U1, RF1
*END STEP
*STEP, NAME=CYCLE_0196, NLGEOM=NO, INC=160
*STATIC
0.005, 1.0, 1.0E-08, 0.025
*BOUNDARY, AMPLITUDE=AMP_ONE_CYCLE
RIGHT_EDGE, 1, 1, 0.10
*OUTPUT, HISTORY, FREQUENCY=1
*NODE OUTPUT, NSET=RIGHT_EDGE
U1, RF1
*END STEP
*STEP, NAME=CYCLE_0197, NLGEOM=NO, INC=160
*STATIC
0.005, 1.0, 1.0E-08, 0.025
*BOUNDARY, AMPLITUDE=AMP_ONE_CYCLE
RIGHT_EDGE, 1, 1, 0.10
*OUTPUT, HISTORY, FREQUENCY=1
*NODE OUTPUT, NSET=RIGHT_EDGE
U1, RF1
*END STEP
*STEP, NAME=CYCLE_0198, NLGEOM=NO, INC=160
*STATIC
0.005, 1.0, 1.0E-08, 0.025
*BOUNDARY, AMPLITUDE=AMP_ONE_CYCLE
RIGHT_EDGE, 1, 1, 0.10
*OUTPUT, HISTORY, FREQUENCY=1
*NODE OUTPUT, NSET=RIGHT_EDGE
U1, RF1
*END STEP
*STEP, NAME=CYCLE_0199, NLGEOM=NO, INC=160
*STATIC
0.005, 1.0, 1.0E-08, 0.025
*BOUNDARY, AMPLITUDE=AMP_ONE_CYCLE
RIGHT_EDGE, 1, 1, 0.10
*OUTPUT, HISTORY, FREQUENCY=1
*NODE OUTPUT, NSET=RIGHT_EDGE
U1, RF1
*END STEP
*STEP, NAME=CYCLE_0200, NLGEOM=NO, INC=160
*STATIC
0.005, 1.0, 1.0E-08, 0.025
*BOUNDARY, AMPLITUDE=AMP_ONE_CYCLE
RIGHT_EDGE, 1, 1, 0.10
*OUTPUT, HISTORY, FREQUENCY=1
*NODE OUTPUT, NSET=RIGHT_EDGE
U1, RF1
*END STEP
*STEP, NAME=CYCLE_0201, NLGEOM=NO, INC=160
*STATIC
0.005, 1.0, 1.0E-08, 0.025
*BOUNDARY, AMPLITUDE=AMP_ONE_CYCLE
RIGHT_EDGE, 1, 1, 0.10
*OUTPUT, HISTORY, FREQUENCY=1
*NODE OUTPUT, NSET=RIGHT_EDGE
U1, RF1
*END STEP
*STEP, NAME=CYCLE_0202, NLGEOM=NO, INC=160
*STATIC
0.005, 1.0, 1.0E-08, 0.025
*BOUNDARY, AMPLITUDE=AMP_ONE_CYCLE
RIGHT_EDGE, 1, 1, 0.10
*OUTPUT, HISTORY, FREQUENCY=1
*NODE OUTPUT, NSET=RIGHT_EDGE
U1, RF1
*END STEP
*STEP, NAME=CYCLE_0203, NLGEOM=NO, INC=160
*STATIC
0.005, 1.0, 1.0E-08, 0.025
*BOUNDARY, AMPLITUDE=AMP_ONE_CYCLE
RIGHT_EDGE, 1, 1, 0.10
*OUTPUT, HISTORY, FREQUENCY=1
*NODE OUTPUT, NSET=RIGHT_EDGE
U1, RF1
*END STEP
*STEP, NAME=CYCLE_0204, NLGEOM=NO, INC=160
*STATIC
0.005, 1.0, 1.0E-08, 0.025
*BOUNDARY, AMPLITUDE=AMP_ONE_CYCLE
RIGHT_EDGE, 1, 1, 0.10
*OUTPUT, HISTORY, FREQUENCY=1
*NODE OUTPUT, NSET=RIGHT_EDGE
U1, RF1
*END STEP
*STEP, NAME=CYCLE_0205, NLGEOM=NO, INC=160
*STATIC
0.005, 1.0, 1.0E-08, 0.025
*BOUNDARY, AMPLITUDE=AMP_ONE_CYCLE
RIGHT_EDGE, 1, 1, 0.10
*OUTPUT, HISTORY, FREQUENCY=1
*NODE OUTPUT, NSET=RIGHT_EDGE
U1, RF1
*END STEP
*STEP, NAME=CYCLE_0206, NLGEOM=NO, INC=160
*STATIC
0.005, 1.0, 1.0E-08, 0.025
*BOUNDARY, AMPLITUDE=AMP_ONE_CYCLE
RIGHT_EDGE, 1, 1, 0.10
*OUTPUT, HISTORY, FREQUENCY=1
*NODE OUTPUT, NSET=RIGHT_EDGE
U1, RF1
*END STEP
*STEP, NAME=CYCLE_0207, NLGEOM=NO, INC=160
*STATIC
0.005, 1.0, 1.0E-08, 0.025
*BOUNDARY, AMPLITUDE=AMP_ONE_CYCLE
RIGHT_EDGE, 1, 1, 0.10
*OUTPUT, HISTORY, FREQUENCY=1
*NODE OUTPUT, NSET=RIGHT_EDGE
U1, RF1
*END STEP
*STEP, NAME=CYCLE_0208, NLGEOM=NO, INC=160
*STATIC
0.005, 1.0, 1.0E-08, 0.025
*BOUNDARY, AMPLITUDE=AMP_ONE_CYCLE
RIGHT_EDGE, 1, 1, 0.10
*OUTPUT, HISTORY, FREQUENCY=1
*NODE OUTPUT, NSET=RIGHT_EDGE
U1, RF1
*END STEP
*STEP, NAME=CYCLE_0209, NLGEOM=NO, INC=160
*STATIC
0.005, 1.0, 1.0E-08, 0.025
*BOUNDARY, AMPLITUDE=AMP_ONE_CYCLE
RIGHT_EDGE, 1, 1, 0.10
*OUTPUT, HISTORY, FREQUENCY=1
*NODE OUTPUT, NSET=RIGHT_EDGE
U1, RF1
*END STEP
*STEP, NAME=CYCLE_0210, NLGEOM=NO, INC=160
*STATIC
0.005, 1.0, 1.0E-08, 0.025
*BOUNDARY, AMPLITUDE=AMP_ONE_CYCLE
RIGHT_EDGE, 1, 1, 0.10
*OUTPUT, HISTORY, FREQUENCY=1
*NODE OUTPUT, NSET=RIGHT_EDGE
U1, RF1
*END STEP
*STEP, NAME=CYCLE_0211, NLGEOM=NO, INC=160
*STATIC
0.005, 1.0, 1.0E-08, 0.025
*BOUNDARY, AMPLITUDE=AMP_ONE_CYCLE
RIGHT_EDGE, 1, 1, 0.10
*OUTPUT, HISTORY, FREQUENCY=1
*NODE OUTPUT, NSET=RIGHT_EDGE
U1, RF1
*END STEP
*STEP, NAME=CYCLE_0212, NLGEOM=NO, INC=160
*STATIC
0.005, 1.0, 1.0E-08, 0.025
*BOUNDARY, AMPLITUDE=AMP_ONE_CYCLE
RIGHT_EDGE, 1, 1, 0.10
*OUTPUT, HISTORY, FREQUENCY=1
*NODE OUTPUT, NSET=RIGHT_EDGE
U1, RF1
*END STEP
*STEP, NAME=CYCLE_0213, NLGEOM=NO, INC=160
*STATIC
0.005, 1.0, 1.0E-08, 0.025
*BOUNDARY, AMPLITUDE=AMP_ONE_CYCLE
RIGHT_EDGE, 1, 1, 0.10
*OUTPUT, HISTORY, FREQUENCY=1
*NODE OUTPUT, NSET=RIGHT_EDGE
U1, RF1
*END STEP
*STEP, NAME=CYCLE_0214, NLGEOM=NO, INC=160
*STATIC
0.005, 1.0, 1.0E-08, 0.025
*BOUNDARY, AMPLITUDE=AMP_ONE_CYCLE
RIGHT_EDGE, 1, 1, 0.10
*OUTPUT, HISTORY, FREQUENCY=1
*NODE OUTPUT, NSET=RIGHT_EDGE
U1, RF1
*END STEP
*STEP, NAME=CYCLE_0215, NLGEOM=NO, INC=160
*STATIC
0.005, 1.0, 1.0E-08, 0.025
*BOUNDARY, AMPLITUDE=AMP_ONE_CYCLE
RIGHT_EDGE, 1, 1, 0.10
*OUTPUT, HISTORY, FREQUENCY=1
*NODE OUTPUT, NSET=RIGHT_EDGE
U1, RF1
*END STEP
*STEP, NAME=CYCLE_0216, NLGEOM=NO, INC=160
*STATIC
0.005, 1.0, 1.0E-08, 0.025
*BOUNDARY, AMPLITUDE=AMP_ONE_CYCLE
RIGHT_EDGE, 1, 1, 0.10
*OUTPUT, HISTORY, FREQUENCY=1
*NODE OUTPUT, NSET=RIGHT_EDGE
U1, RF1
*END STEP
*STEP, NAME=CYCLE_0217, NLGEOM=NO, INC=160
*STATIC
0.005, 1.0, 1.0E-08, 0.025
*BOUNDARY, AMPLITUDE=AMP_ONE_CYCLE
RIGHT_EDGE, 1, 1, 0.10
*OUTPUT, HISTORY, FREQUENCY=1
*NODE OUTPUT, NSET=RIGHT_EDGE
U1, RF1
*END STEP
*STEP, NAME=CYCLE_0218, NLGEOM=NO, INC=160
*STATIC
0.005, 1.0, 1.0E-08, 0.025
*BOUNDARY, AMPLITUDE=AMP_ONE_CYCLE
RIGHT_EDGE, 1, 1, 0.10
*OUTPUT, HISTORY, FREQUENCY=1
*NODE OUTPUT, NSET=RIGHT_EDGE
U1, RF1
*END STEP
*STEP, NAME=CYCLE_0219, NLGEOM=NO, INC=160
*STATIC
0.005, 1.0, 1.0E-08, 0.025
*BOUNDARY, AMPLITUDE=AMP_ONE_CYCLE
RIGHT_EDGE, 1, 1, 0.10
*OUTPUT, HISTORY, FREQUENCY=1
*NODE OUTPUT, NSET=RIGHT_EDGE
U1, RF1
*END STEP
*STEP, NAME=CYCLE_0220, NLGEOM=NO, INC=160
*STATIC
0.005, 1.0, 1.0E-08, 0.025
*BOUNDARY, AMPLITUDE=AMP_ONE_CYCLE
RIGHT_EDGE, 1, 1, 0.10
*OUTPUT, HISTORY, FREQUENCY=1
*NODE OUTPUT, NSET=RIGHT_EDGE
U1, RF1
*END STEP
*STEP, NAME=CYCLE_0221, NLGEOM=NO, INC=160
*STATIC
0.005, 1.0, 1.0E-08, 0.025
*BOUNDARY, AMPLITUDE=AMP_ONE_CYCLE
RIGHT_EDGE, 1, 1, 0.10
*OUTPUT, HISTORY, FREQUENCY=1
*NODE OUTPUT, NSET=RIGHT_EDGE
U1, RF1
*END STEP
*STEP, NAME=CYCLE_0222, NLGEOM=NO, INC=160
*STATIC
0.005, 1.0, 1.0E-08, 0.025
*BOUNDARY, AMPLITUDE=AMP_ONE_CYCLE
RIGHT_EDGE, 1, 1, 0.10
*OUTPUT, HISTORY, FREQUENCY=1
*NODE OUTPUT, NSET=RIGHT_EDGE
U1, RF1
*END STEP
*STEP, NAME=CYCLE_0223, NLGEOM=NO, INC=160
*STATIC
0.005, 1.0, 1.0E-08, 0.025
*BOUNDARY, AMPLITUDE=AMP_ONE_CYCLE
RIGHT_EDGE, 1, 1, 0.10
*OUTPUT, HISTORY, FREQUENCY=1
*NODE OUTPUT, NSET=RIGHT_EDGE
U1, RF1
*END STEP
*STEP, NAME=CYCLE_0224, NLGEOM=NO, INC=160
*STATIC
0.005, 1.0, 1.0E-08, 0.025
*BOUNDARY, AMPLITUDE=AMP_ONE_CYCLE
RIGHT_EDGE, 1, 1, 0.10
*OUTPUT, HISTORY, FREQUENCY=1
*NODE OUTPUT, NSET=RIGHT_EDGE
U1, RF1
*END STEP
*STEP, NAME=CYCLE_0225, NLGEOM=NO, INC=160
*STATIC
0.005, 1.0, 1.0E-08, 0.025
*BOUNDARY, AMPLITUDE=AMP_ONE_CYCLE
RIGHT_EDGE, 1, 1, 0.10
*OUTPUT, HISTORY, FREQUENCY=1
*NODE OUTPUT, NSET=RIGHT_EDGE
U1, RF1
*END STEP
*STEP, NAME=CYCLE_0226, NLGEOM=NO, INC=160
*STATIC
0.005, 1.0, 1.0E-08, 0.025
*BOUNDARY, AMPLITUDE=AMP_ONE_CYCLE
RIGHT_EDGE, 1, 1, 0.10
*OUTPUT, HISTORY, FREQUENCY=1
*NODE OUTPUT, NSET=RIGHT_EDGE
U1, RF1
*END STEP
*STEP, NAME=CYCLE_0227, NLGEOM=NO, INC=160
*STATIC
0.005, 1.0, 1.0E-08, 0.025
*BOUNDARY, AMPLITUDE=AMP_ONE_CYCLE
RIGHT_EDGE, 1, 1, 0.10
*OUTPUT, HISTORY, FREQUENCY=1
*NODE OUTPUT, NSET=RIGHT_EDGE
U1, RF1
*END STEP
*STEP, NAME=CYCLE_0228, NLGEOM=NO, INC=160
*STATIC
0.005, 1.0, 1.0E-08, 0.025
*BOUNDARY, AMPLITUDE=AMP_ONE_CYCLE
RIGHT_EDGE, 1, 1, 0.10
*OUTPUT, HISTORY, FREQUENCY=1
*NODE OUTPUT, NSET=RIGHT_EDGE
U1, RF1
*END STEP
*STEP, NAME=CYCLE_0229, NLGEOM=NO, INC=160
*STATIC
0.005, 1.0, 1.0E-08, 0.025
*BOUNDARY, AMPLITUDE=AMP_ONE_CYCLE
RIGHT_EDGE, 1, 1, 0.10
*OUTPUT, HISTORY, FREQUENCY=1
*NODE OUTPUT, NSET=RIGHT_EDGE
U1, RF1
*END STEP
*STEP, NAME=CYCLE_0230, NLGEOM=NO, INC=160
*STATIC
0.005, 1.0, 1.0E-08, 0.025
*BOUNDARY, AMPLITUDE=AMP_ONE_CYCLE
RIGHT_EDGE, 1, 1, 0.10
*OUTPUT, HISTORY, FREQUENCY=1
*NODE OUTPUT, NSET=RIGHT_EDGE
U1, RF1
*END STEP
*STEP, NAME=CYCLE_0231, NLGEOM=NO, INC=160
*STATIC
0.005, 1.0, 1.0E-08, 0.025
*BOUNDARY, AMPLITUDE=AMP_ONE_CYCLE
RIGHT_EDGE, 1, 1, 0.10
*OUTPUT, HISTORY, FREQUENCY=1
*NODE OUTPUT, NSET=RIGHT_EDGE
U1, RF1
*END STEP
*STEP, NAME=CYCLE_0232, NLGEOM=NO, INC=160
*STATIC
0.005, 1.0, 1.0E-08, 0.025
*BOUNDARY, AMPLITUDE=AMP_ONE_CYCLE
RIGHT_EDGE, 1, 1, 0.10
*OUTPUT, HISTORY, FREQUENCY=1
*NODE OUTPUT, NSET=RIGHT_EDGE
U1, RF1
*END STEP
*STEP, NAME=CYCLE_0233, NLGEOM=NO, INC=160
*STATIC
0.005, 1.0, 1.0E-08, 0.025
*BOUNDARY, AMPLITUDE=AMP_ONE_CYCLE
RIGHT_EDGE, 1, 1, 0.10
*OUTPUT, HISTORY, FREQUENCY=1
*NODE OUTPUT, NSET=RIGHT_EDGE
U1, RF1
*END STEP
*STEP, NAME=CYCLE_0234, NLGEOM=NO, INC=160
*STATIC
0.005, 1.0, 1.0E-08, 0.025
*BOUNDARY, AMPLITUDE=AMP_ONE_CYCLE
RIGHT_EDGE, 1, 1, 0.10
*OUTPUT, HISTORY, FREQUENCY=1
*NODE OUTPUT, NSET=RIGHT_EDGE
U1, RF1
*END STEP
*STEP, NAME=CYCLE_0235, NLGEOM=NO, INC=160
*STATIC
0.005, 1.0, 1.0E-08, 0.025
*BOUNDARY, AMPLITUDE=AMP_ONE_CYCLE
RIGHT_EDGE, 1, 1, 0.10
*OUTPUT, HISTORY, FREQUENCY=1
*NODE OUTPUT, NSET=RIGHT_EDGE
U1, RF1
*END STEP
*STEP, NAME=CYCLE_0236, NLGEOM=NO, INC=160
*STATIC
0.005, 1.0, 1.0E-08, 0.025
*BOUNDARY, AMPLITUDE=AMP_ONE_CYCLE
RIGHT_EDGE, 1, 1, 0.10
*OUTPUT, HISTORY, FREQUENCY=1
*NODE OUTPUT, NSET=RIGHT_EDGE
U1, RF1
*END STEP
*STEP, NAME=CYCLE_0237, NLGEOM=NO, INC=160
*STATIC
0.005, 1.0, 1.0E-08, 0.025
*BOUNDARY, AMPLITUDE=AMP_ONE_CYCLE
RIGHT_EDGE, 1, 1, 0.10
*OUTPUT, HISTORY, FREQUENCY=1
*NODE OUTPUT, NSET=RIGHT_EDGE
U1, RF1
*END STEP
*STEP, NAME=CYCLE_0238, NLGEOM=NO, INC=160
*STATIC
0.005, 1.0, 1.0E-08, 0.025
*BOUNDARY, AMPLITUDE=AMP_ONE_CYCLE
RIGHT_EDGE, 1, 1, 0.10
*OUTPUT, HISTORY, FREQUENCY=1
*NODE OUTPUT, NSET=RIGHT_EDGE
U1, RF1
*END STEP
*STEP, NAME=CYCLE_0239, NLGEOM=NO, INC=160
*STATIC
0.005, 1.0, 1.0E-08, 0.025
*BOUNDARY, AMPLITUDE=AMP_ONE_CYCLE
RIGHT_EDGE, 1, 1, 0.10
*OUTPUT, HISTORY, FREQUENCY=1
*NODE OUTPUT, NSET=RIGHT_EDGE
U1, RF1
*END STEP
*STEP, NAME=CYCLE_0240, NLGEOM=NO, INC=160
*STATIC
0.005, 1.0, 1.0E-08, 0.025
*BOUNDARY, AMPLITUDE=AMP_ONE_CYCLE
RIGHT_EDGE, 1, 1, 0.10
*OUTPUT, HISTORY, FREQUENCY=1
*NODE OUTPUT, NSET=RIGHT_EDGE
U1, RF1
*END STEP
*STEP, NAME=CYCLE_0241, NLGEOM=NO, INC=160
*STATIC
0.005, 1.0, 1.0E-08, 0.025
*BOUNDARY, AMPLITUDE=AMP_ONE_CYCLE
RIGHT_EDGE, 1, 1, 0.10
*OUTPUT, HISTORY, FREQUENCY=1
*NODE OUTPUT, NSET=RIGHT_EDGE
U1, RF1
*END STEP
*STEP, NAME=CYCLE_0242, NLGEOM=NO, INC=160
*STATIC
0.005, 1.0, 1.0E-08, 0.025
*BOUNDARY, AMPLITUDE=AMP_ONE_CYCLE
RIGHT_EDGE, 1, 1, 0.10
*OUTPUT, HISTORY, FREQUENCY=1
*NODE OUTPUT, NSET=RIGHT_EDGE
U1, RF1
*END STEP
*STEP, NAME=CYCLE_0243, NLGEOM=NO, INC=160
*STATIC
0.005, 1.0, 1.0E-08, 0.025
*BOUNDARY, AMPLITUDE=AMP_ONE_CYCLE
RIGHT_EDGE, 1, 1, 0.10
*OUTPUT, HISTORY, FREQUENCY=1
*NODE OUTPUT, NSET=RIGHT_EDGE
U1, RF1
*END STEP
*STEP, NAME=CYCLE_0244, NLGEOM=NO, INC=160
*STATIC
0.005, 1.0, 1.0E-08, 0.025
*BOUNDARY, AMPLITUDE=AMP_ONE_CYCLE
RIGHT_EDGE, 1, 1, 0.10
*OUTPUT, HISTORY, FREQUENCY=1
*NODE OUTPUT, NSET=RIGHT_EDGE
U1, RF1
*END STEP
*STEP, NAME=CYCLE_0245, NLGEOM=NO, INC=160
*STATIC
0.005, 1.0, 1.0E-08, 0.025
*BOUNDARY, AMPLITUDE=AMP_ONE_CYCLE
RIGHT_EDGE, 1, 1, 0.10
*OUTPUT, HISTORY, FREQUENCY=1
*NODE OUTPUT, NSET=RIGHT_EDGE
U1, RF1
*END STEP
*STEP, NAME=CYCLE_0246, NLGEOM=NO, INC=160
*STATIC
0.005, 1.0, 1.0E-08, 0.025
*BOUNDARY, AMPLITUDE=AMP_ONE_CYCLE
RIGHT_EDGE, 1, 1, 0.10
*OUTPUT, HISTORY, FREQUENCY=1
*NODE OUTPUT, NSET=RIGHT_EDGE
U1, RF1
*END STEP
*STEP, NAME=CYCLE_0247, NLGEOM=NO, INC=160
*STATIC
0.005, 1.0, 1.0E-08, 0.025
*BOUNDARY, AMPLITUDE=AMP_ONE_CYCLE
RIGHT_EDGE, 1, 1, 0.10
*OUTPUT, HISTORY, FREQUENCY=1
*NODE OUTPUT, NSET=RIGHT_EDGE
U1, RF1
*END STEP
*STEP, NAME=CYCLE_0248, NLGEOM=NO, INC=160
*STATIC
0.005, 1.0, 1.0E-08, 0.025
*BOUNDARY, AMPLITUDE=AMP_ONE_CYCLE
RIGHT_EDGE, 1, 1, 0.10
*OUTPUT, HISTORY, FREQUENCY=1
*NODE OUTPUT, NSET=RIGHT_EDGE
U1, RF1
*END STEP
*STEP, NAME=CYCLE_0249, NLGEOM=NO, INC=160
*STATIC
0.005, 1.0, 1.0E-08, 0.025
*BOUNDARY, AMPLITUDE=AMP_ONE_CYCLE
RIGHT_EDGE, 1, 1, 0.10
*OUTPUT, HISTORY, FREQUENCY=1
*NODE OUTPUT, NSET=RIGHT_EDGE
U1, RF1
*END STEP
*STEP, NAME=CYCLE_0250, NLGEOM=NO, INC=160
*STATIC
0.005, 1.0, 1.0E-08, 0.025
*BOUNDARY, AMPLITUDE=AMP_ONE_CYCLE
RIGHT_EDGE, 1, 1, 0.10
*OUTPUT, HISTORY, FREQUENCY=1
*NODE OUTPUT, NSET=RIGHT_EDGE
U1, RF1
*OUTPUT, FIELD, NUMBER INTERVAL=4
*NODE OUTPUT
U, RF
*ELEMENT OUTPUT
S, SDV
*END STEP
