** Chaboche-v1 UMAT - Fifty Fully Reversed Cycles at eps_amp=0.005
*HEADING
Chaboche-v1 UMAT - 50 cyclic tension-compression cycles, eps_amp=0.005

** ----------------------------------------------------------------
** PART
** ----------------------------------------------------------------
*PART, NAME=BLOCK
*NODE
1,0.0,0.0,0.0
2,10.0,0.0,0.0
3,10.0,2.0,0.0
4,0.0,2.0,0.0
5,0.0,0.0,2.0
6,10.0,0.0,2.0
7,10.0,2.0,2.0
8,0.0,2.0,2.0
*ELEMENT, TYPE=C3D8, ELSET=BLOCK
1,1,2,3,4,5,6,7,8
*SOLID SECTION, ELSET=BLOCK, MATERIAL=CHABOCHE_VP
*END PART

** ----------------------------------------------------------------
** ASSEMBLY
** ----------------------------------------------------------------
*ASSEMBLY, NAME=ASSEMBLY
*INSTANCE, NAME=BLOCK_INST, PART=BLOCK
*END INSTANCE
*NSET, NSET=LEFT_FACE, INSTANCE=BLOCK_INST
1,4,5,8
*NSET, NSET=RIGHT_FACE, INSTANCE=BLOCK_INST
2,3,6,7
*END ASSEMBLY

** ----------------------------------------------------------------
** MATERIAL
** ----------------------------------------------------------------
*MATERIAL, NAME=CHABOCHE_VP
*DEPVAR
15
*USER MATERIAL, CONSTANTS=9
** E, nu, sigma_y, Q, b, C, gamma, K, m
210000.0, 0.3, 520.0, 200.0, 0.05, 120000.0, 800.0, 1000.0, 5.0

** ----------------------------------------------------------------
** CYCLIC AMPLITUDE: 50 cycles, 0 -> +1 -> 0 -> -1 -> 0 per cycle
** ----------------------------------------------------------------
*AMPLITUDE, NAME=AMP_CYCLIC_50, DEFINITION=TABULAR
0.00, 0.0
0.25, 1.0
0.50, 0.0
0.75, -1.0
1.00, 0.0
1.25, 1.0
1.50, 0.0
1.75, -1.0
2.00, 0.0
2.25, 1.0
2.50, 0.0
2.75, -1.0
3.00, 0.0
3.25, 1.0
3.50, 0.0
3.75, -1.0
4.00, 0.0
4.25, 1.0
4.50, 0.0
4.75, -1.0
5.00, 0.0
5.25, 1.0
5.50, 0.0
5.75, -1.0
6.00, 0.0
6.25, 1.0
6.50, 0.0
6.75, -1.0
7.00, 0.0
7.25, 1.0
7.50, 0.0
7.75, -1.0
8.00, 0.0
8.25, 1.0
8.50, 0.0
8.75, -1.0
9.00, 0.0
9.25, 1.0
9.50, 0.0
9.75, -1.0
10.00, 0.0
10.25, 1.0
10.50, 0.0
10.75, -1.0
11.00, 0.0
11.25, 1.0
11.50, 0.0
11.75, -1.0
12.00, 0.0
12.25, 1.0
12.50, 0.0
12.75, -1.0
13.00, 0.0
13.25, 1.0
13.50, 0.0
13.75, -1.0
14.00, 0.0
14.25, 1.0
14.50, 0.0
14.75, -1.0
15.00, 0.0
15.25, 1.0
15.50, 0.0
15.75, -1.0
16.00, 0.0
16.25, 1.0
16.50, 0.0
16.75, -1.0
17.00, 0.0
17.25, 1.0
17.50, 0.0
17.75, -1.0
18.00, 0.0
18.25, 1.0
18.50, 0.0
18.75, -1.0
19.00, 0.0
19.25, 1.0
19.50, 0.0
19.75, -1.0
20.00, 0.0
20.25, 1.0
20.50, 0.0
20.75, -1.0
21.00, 0.0
21.25, 1.0
21.50, 0.0
21.75, -1.0
22.00, 0.0
22.25, 1.0
22.50, 0.0
22.75, -1.0
23.00, 0.0
23.25, 1.0
23.50, 0.0
23.75, -1.0
24.00, 0.0
24.25, 1.0
24.50, 0.0
24.75, -1.0
25.00, 0.0
25.25, 1.0
25.50, 0.0
25.75, -1.0
26.00, 0.0
26.25, 1.0
26.50, 0.0
26.75, -1.0
27.00, 0.0
27.25, 1.0
27.50, 0.0
27.75, -1.0
28.00, 0.0
28.25, 1.0
28.50, 0.0
28.75, -1.0
29.00, 0.0
29.25, 1.0
29.50, 0.0
29.75, -1.0
30.00, 0.0
30.25, 1.0
30.50, 0.0
30.75, -1.0
31.00, 0.0
31.25, 1.0
31.50, 0.0
31.75, -1.0
32.00, 0.0
32.25, 1.0
32.50, 0.0
32.75, -1.0
33.00, 0.0
33.25, 1.0
33.50, 0.0
33.75, -1.0
34.00, 0.0
34.25, 1.0
34.50, 0.0
34.75, -1.0
35.00, 0.0
35.25, 1.0
35.50, 0.0
35.75, -1.0
36.00, 0.0
36.25, 1.0
36.50, 0.0
36.75, -1.0
37.00, 0.0
37.25, 1.0
37.50, 0.0
37.75, -1.0
38.00, 0.0
38.25, 1.0
38.50, 0.0
38.75, -1.0
39.00, 0.0
39.25, 1.0
39.50, 0.0
39.75, -1.0
40.00, 0.0
40.25, 1.0
40.50, 0.0
40.75, -1.0
41.00, 0.0
41.25, 1.0
41.50, 0.0
41.75, -1.0
42.00, 0.0
42.25, 1.0
42.50, 0.0
42.75, -1.0
43.00, 0.0
43.25, 1.0
43.50, 0.0
43.75, -1.0
44.00, 0.0
44.25, 1.0
44.50, 0.0
44.75, -1.0
45.00, 0.0
45.25, 1.0
45.50, 0.0
45.75, -1.0
46.00, 0.0
46.25, 1.0
46.50, 0.0
46.75, -1.0
47.00, 0.0
47.25, 1.0
47.50, 0.0
47.75, -1.0
48.00, 0.0
48.25, 1.0
48.50, 0.0
48.75, -1.0
49.00, 0.0
49.25, 1.0
49.50, 0.0
49.75, -1.0
50.00, 0.0

** ----------------------------------------------------------------
** STEP: FIFTY FULLY REVERSED CYCLES
** ----------------------------------------------------------------
*STEP, NAME=CYCLIC_50, NLGEOM=NO, INC=6000
*STATIC
0.001, 50.0, 1.0E-08, 0.02

*BOUNDARY
LEFT_FACE, 1, 1, 0.0
BLOCK_INST.1, 2, 3, 0.0
BLOCK_INST.4, 3, 3, 0.0
*BOUNDARY, AMPLITUDE=AMP_CYCLIC_50
RIGHT_FACE, 1, 1, 0.05

*OUTPUT, FIELD, FREQUENCY=1
*NODE OUTPUT
U, RF
*ELEMENT OUTPUT
S, SDV

*OUTPUT, HISTORY, FREQUENCY=1
*NODE OUTPUT, NSET=RIGHT_FACE
U1, RF1

*END STEP
