** Chaboche-v1 UMAT - Fifty Fully Reversed Cycles at eps_amp=0.005
*HEADING
Chaboche-v1 UMAT - 500 cyclic tension-compression cycles, eps_amp=0.005

** ----------------------------------------------------------------
** PART
** ----------------------------------------------------------------
*PART, NAME=BLOCK
*NODE
1,0.0,0.0,0.0
2,10.0,0.0,0.0
3,10.0,2.0,0.0
4,0.0,2.0,0.0
5,0.0,0.0,2.0
6,10.0,0.0,2.0
7,10.0,2.0,2.0
8,0.0,2.0,2.0
*ELEMENT, TYPE=C3D8, ELSET=BLOCK
1,1,2,3,4,5,6,7,8
*SOLID SECTION, ELSET=BLOCK, MATERIAL=CHABOCHE_VP
*END PART

** ----------------------------------------------------------------
** ASSEMBLY
** ----------------------------------------------------------------
*ASSEMBLY, NAME=ASSEMBLY
*INSTANCE, NAME=BLOCK_INST, PART=BLOCK
*END INSTANCE
*NSET, NSET=LEFT_FACE, INSTANCE=BLOCK_INST
1,4,5,8
*NSET, NSET=RIGHT_FACE, INSTANCE=BLOCK_INST
2,3,6,7
*END ASSEMBLY

** ----------------------------------------------------------------
** MATERIAL
** ----------------------------------------------------------------
*MATERIAL, NAME=CHABOCHE_VP
*DEPVAR
15
*USER MATERIAL, CONSTANTS=9
** E, nu, sigma_y, Q, b, C, gamma, K, m
210000.0, 0.3, 520.0, 200.0, 0.05, 120000.0, 800.0, 1000.0, 5.0

** ----------------------------------------------------------------
** CYCLIC AMPLITUDE: 500 cycles, 0 -> +1 -> 0 -> -1 -> 0 per cycle
** ----------------------------------------------------------------
*AMPLITUDE, NAME=AMP_CYCLIC_500, DEFINITION=TABULAR
0.00, 0.0
0.25, 1.0
0.50, 0.0
0.75, -1.0
1.00, 0.0
1.25, 1.0
1.50, 0.0
1.75, -1.0
2.00, 0.0
2.25, 1.0
2.50, 0.0
2.75, -1.0
3.00, 0.0
3.25, 1.0
3.50, 0.0
3.75, -1.0
4.00, 0.0
4.25, 1.0
4.50, 0.0
4.75, -1.0
5.00, 0.0
5.25, 1.0
5.50, 0.0
5.75, -1.0
6.00, 0.0
6.25, 1.0
6.50, 0.0
6.75, -1.0
7.00, 0.0
7.25, 1.0
7.50, 0.0
7.75, -1.0
8.00, 0.0
8.25, 1.0
8.50, 0.0
8.75, -1.0
9.00, 0.0
9.25, 1.0
9.50, 0.0
9.75, -1.0
10.00, 0.0
10.25, 1.0
10.50, 0.0
10.75, -1.0
11.00, 0.0
11.25, 1.0
11.50, 0.0
11.75, -1.0
12.00, 0.0
12.25, 1.0
12.50, 0.0
12.75, -1.0
13.00, 0.0
13.25, 1.0
13.50, 0.0
13.75, -1.0
14.00, 0.0
14.25, 1.0
14.50, 0.0
14.75, -1.0
15.00, 0.0
15.25, 1.0
15.50, 0.0
15.75, -1.0
16.00, 0.0
16.25, 1.0
16.50, 0.0
16.75, -1.0
17.00, 0.0
17.25, 1.0
17.50, 0.0
17.75, -1.0
18.00, 0.0
18.25, 1.0
18.50, 0.0
18.75, -1.0
19.00, 0.0
19.25, 1.0
19.50, 0.0
19.75, -1.0
20.00, 0.0
20.25, 1.0
20.50, 0.0
20.75, -1.0
21.00, 0.0
21.25, 1.0
21.50, 0.0
21.75, -1.0
22.00, 0.0
22.25, 1.0
22.50, 0.0
22.75, -1.0
23.00, 0.0
23.25, 1.0
23.50, 0.0
23.75, -1.0
24.00, 0.0
24.25, 1.0
24.50, 0.0
24.75, -1.0
25.00, 0.0
25.25, 1.0
25.50, 0.0
25.75, -1.0
26.00, 0.0
26.25, 1.0
26.50, 0.0
26.75, -1.0
27.00, 0.0
27.25, 1.0
27.50, 0.0
27.75, -1.0
28.00, 0.0
28.25, 1.0
28.50, 0.0
28.75, -1.0
29.00, 0.0
29.25, 1.0
29.50, 0.0
29.75, -1.0
30.00, 0.0
30.25, 1.0
30.50, 0.0
30.75, -1.0
31.00, 0.0
31.25, 1.0
31.50, 0.0
31.75, -1.0
32.00, 0.0
32.25, 1.0
32.50, 0.0
32.75, -1.0
33.00, 0.0
33.25, 1.0
33.50, 0.0
33.75, -1.0
34.00, 0.0
34.25, 1.0
34.50, 0.0
34.75, -1.0
35.00, 0.0
35.25, 1.0
35.50, 0.0
35.75, -1.0
36.00, 0.0
36.25, 1.0
36.50, 0.0
36.75, -1.0
37.00, 0.0
37.25, 1.0
37.50, 0.0
37.75, -1.0
38.00, 0.0
38.25, 1.0
38.50, 0.0
38.75, -1.0
39.00, 0.0
39.25, 1.0
39.50, 0.0
39.75, -1.0
40.00, 0.0
40.25, 1.0
40.50, 0.0
40.75, -1.0
41.00, 0.0
41.25, 1.0
41.50, 0.0
41.75, -1.0
42.00, 0.0
42.25, 1.0
42.50, 0.0
42.75, -1.0
43.00, 0.0
43.25, 1.0
43.50, 0.0
43.75, -1.0
44.00, 0.0
44.25, 1.0
44.50, 0.0
44.75, -1.0
45.00, 0.0
45.25, 1.0
45.50, 0.0
45.75, -1.0
46.00, 0.0
46.25, 1.0
46.50, 0.0
46.75, -1.0
47.00, 0.0
47.25, 1.0
47.50, 0.0
47.75, -1.0
48.00, 0.0
48.25, 1.0
48.50, 0.0
48.75, -1.0
49.00, 0.0
49.25, 1.0
49.50, 0.0
49.75, -1.0
50.00, 0.0
50.25, 1.0
50.50, 0.0
50.75, -1.0
51.00, 0.0
51.25, 1.0
51.50, 0.0
51.75, -1.0
52.00, 0.0
52.25, 1.0
52.50, 0.0
52.75, -1.0
53.00, 0.0
53.25, 1.0
53.50, 0.0
53.75, -1.0
54.00, 0.0
54.25, 1.0
54.50, 0.0
54.75, -1.0
55.00, 0.0
55.25, 1.0
55.50, 0.0
55.75, -1.0
56.00, 0.0
56.25, 1.0
56.50, 0.0
56.75, -1.0
57.00, 0.0
57.25, 1.0
57.50, 0.0
57.75, -1.0
58.00, 0.0
58.25, 1.0
58.50, 0.0
58.75, -1.0
59.00, 0.0
59.25, 1.0
59.50, 0.0
59.75, -1.0
60.00, 0.0
60.25, 1.0
60.50, 0.0
60.75, -1.0
61.00, 0.0
61.25, 1.0
61.50, 0.0
61.75, -1.0
62.00, 0.0
62.25, 1.0
62.50, 0.0
62.75, -1.0
63.00, 0.0
63.25, 1.0
63.50, 0.0
63.75, -1.0
64.00, 0.0
64.25, 1.0
64.50, 0.0
64.75, -1.0
65.00, 0.0
65.25, 1.0
65.50, 0.0
65.75, -1.0
66.00, 0.0
66.25, 1.0
66.50, 0.0
66.75, -1.0
67.00, 0.0
67.25, 1.0
67.50, 0.0
67.75, -1.0
68.00, 0.0
68.25, 1.0
68.50, 0.0
68.75, -1.0
69.00, 0.0
69.25, 1.0
69.50, 0.0
69.75, -1.0
70.00, 0.0
70.25, 1.0
70.50, 0.0
70.75, -1.0
71.00, 0.0
71.25, 1.0
71.50, 0.0
71.75, -1.0
72.00, 0.0
72.25, 1.0
72.50, 0.0
72.75, -1.0
73.00, 0.0
73.25, 1.0
73.50, 0.0
73.75, -1.0
74.00, 0.0
74.25, 1.0
74.50, 0.0
74.75, -1.0
75.00, 0.0
75.25, 1.0
75.50, 0.0
75.75, -1.0
76.00, 0.0
76.25, 1.0
76.50, 0.0
76.75, -1.0
77.00, 0.0
77.25, 1.0
77.50, 0.0
77.75, -1.0
78.00, 0.0
78.25, 1.0
78.50, 0.0
78.75, -1.0
79.00, 0.0
79.25, 1.0
79.50, 0.0
79.75, -1.0
80.00, 0.0
80.25, 1.0
80.50, 0.0
80.75, -1.0
81.00, 0.0
81.25, 1.0
81.50, 0.0
81.75, -1.0
82.00, 0.0
82.25, 1.0
82.50, 0.0
82.75, -1.0
83.00, 0.0
83.25, 1.0
83.50, 0.0
83.75, -1.0
84.00, 0.0
84.25, 1.0
84.50, 0.0
84.75, -1.0
85.00, 0.0
85.25, 1.0
85.50, 0.0
85.75, -1.0
86.00, 0.0
86.25, 1.0
86.50, 0.0
86.75, -1.0
87.00, 0.0
87.25, 1.0
87.50, 0.0
87.75, -1.0
88.00, 0.0
88.25, 1.0
88.50, 0.0
88.75, -1.0
89.00, 0.0
89.25, 1.0
89.50, 0.0
89.75, -1.0
90.00, 0.0
90.25, 1.0
90.50, 0.0
90.75, -1.0
91.00, 0.0
91.25, 1.0
91.50, 0.0
91.75, -1.0
92.00, 0.0
92.25, 1.0
92.50, 0.0
92.75, -1.0
93.00, 0.0
93.25, 1.0
93.50, 0.0
93.75, -1.0
94.00, 0.0
94.25, 1.0
94.50, 0.0
94.75, -1.0
95.00, 0.0
95.25, 1.0
95.50, 0.0
95.75, -1.0
96.00, 0.0
96.25, 1.0
96.50, 0.0
96.75, -1.0
97.00, 0.0
97.25, 1.0
97.50, 0.0
97.75, -1.0
98.00, 0.0
98.25, 1.0
98.50, 0.0
98.75, -1.0
99.00, 0.0
99.25, 1.0
99.50, 0.0
99.75, -1.0
100.00, 0.0
100.25, 1.0
100.50, 0.0
100.75, -1.0
101.00, 0.0
101.25, 1.0
101.50, 0.0
101.75, -1.0
102.00, 0.0
102.25, 1.0
102.50, 0.0
102.75, -1.0
103.00, 0.0
103.25, 1.0
103.50, 0.0
103.75, -1.0
104.00, 0.0
104.25, 1.0
104.50, 0.0
104.75, -1.0
105.00, 0.0
105.25, 1.0
105.50, 0.0
105.75, -1.0
106.00, 0.0
106.25, 1.0
106.50, 0.0
106.75, -1.0
107.00, 0.0
107.25, 1.0
107.50, 0.0
107.75, -1.0
108.00, 0.0
108.25, 1.0
108.50, 0.0
108.75, -1.0
109.00, 0.0
109.25, 1.0
109.50, 0.0
109.75, -1.0
110.00, 0.0
110.25, 1.0
110.50, 0.0
110.75, -1.0
111.00, 0.0
111.25, 1.0
111.50, 0.0
111.75, -1.0
112.00, 0.0
112.25, 1.0
112.50, 0.0
112.75, -1.0
113.00, 0.0
113.25, 1.0
113.50, 0.0
113.75, -1.0
114.00, 0.0
114.25, 1.0
114.50, 0.0
114.75, -1.0
115.00, 0.0
115.25, 1.0
115.50, 0.0
115.75, -1.0
116.00, 0.0
116.25, 1.0
116.50, 0.0
116.75, -1.0
117.00, 0.0
117.25, 1.0
117.50, 0.0
117.75, -1.0
118.00, 0.0
118.25, 1.0
118.50, 0.0
118.75, -1.0
119.00, 0.0
119.25, 1.0
119.50, 0.0
119.75, -1.0
120.00, 0.0
120.25, 1.0
120.50, 0.0
120.75, -1.0
121.00, 0.0
121.25, 1.0
121.50, 0.0
121.75, -1.0
122.00, 0.0
122.25, 1.0
122.50, 0.0
122.75, -1.0
123.00, 0.0
123.25, 1.0
123.50, 0.0
123.75, -1.0
124.00, 0.0
124.25, 1.0
124.50, 0.0
124.75, -1.0
125.00, 0.0
125.25, 1.0
125.50, 0.0
125.75, -1.0
126.00, 0.0
126.25, 1.0
126.50, 0.0
126.75, -1.0
127.00, 0.0
127.25, 1.0
127.50, 0.0
127.75, -1.0
128.00, 0.0
128.25, 1.0
128.50, 0.0
128.75, -1.0
129.00, 0.0
129.25, 1.0
129.50, 0.0
129.75, -1.0
130.00, 0.0
130.25, 1.0
130.50, 0.0
130.75, -1.0
131.00, 0.0
131.25, 1.0
131.50, 0.0
131.75, -1.0
132.00, 0.0
132.25, 1.0
132.50, 0.0
132.75, -1.0
133.00, 0.0
133.25, 1.0
133.50, 0.0
133.75, -1.0
134.00, 0.0
134.25, 1.0
134.50, 0.0
134.75, -1.0
135.00, 0.0
135.25, 1.0
135.50, 0.0
135.75, -1.0
136.00, 0.0
136.25, 1.0
136.50, 0.0
136.75, -1.0
137.00, 0.0
137.25, 1.0
137.50, 0.0
137.75, -1.0
138.00, 0.0
138.25, 1.0
138.50, 0.0
138.75, -1.0
139.00, 0.0
139.25, 1.0
139.50, 0.0
139.75, -1.0
140.00, 0.0
140.25, 1.0
140.50, 0.0
140.75, -1.0
141.00, 0.0
141.25, 1.0
141.50, 0.0
141.75, -1.0
142.00, 0.0
142.25, 1.0
142.50, 0.0
142.75, -1.0
143.00, 0.0
143.25, 1.0
143.50, 0.0
143.75, -1.0
144.00, 0.0
144.25, 1.0
144.50, 0.0
144.75, -1.0
145.00, 0.0
145.25, 1.0
145.50, 0.0
145.75, -1.0
146.00, 0.0
146.25, 1.0
146.50, 0.0
146.75, -1.0
147.00, 0.0
147.25, 1.0
147.50, 0.0
147.75, -1.0
148.00, 0.0
148.25, 1.0
148.50, 0.0
148.75, -1.0
149.00, 0.0
149.25, 1.0
149.50, 0.0
149.75, -1.0
150.00, 0.0
150.25, 1.0
150.50, 0.0
150.75, -1.0
151.00, 0.0
151.25, 1.0
151.50, 0.0
151.75, -1.0
152.00, 0.0
152.25, 1.0
152.50, 0.0
152.75, -1.0
153.00, 0.0
153.25, 1.0
153.50, 0.0
153.75, -1.0
154.00, 0.0
154.25, 1.0
154.50, 0.0
154.75, -1.0
155.00, 0.0
155.25, 1.0
155.50, 0.0
155.75, -1.0
156.00, 0.0
156.25, 1.0
156.50, 0.0
156.75, -1.0
157.00, 0.0
157.25, 1.0
157.50, 0.0
157.75, -1.0
158.00, 0.0
158.25, 1.0
158.50, 0.0
158.75, -1.0
159.00, 0.0
159.25, 1.0
159.50, 0.0
159.75, -1.0
160.00, 0.0
160.25, 1.0
160.50, 0.0
160.75, -1.0
161.00, 0.0
161.25, 1.0
161.50, 0.0
161.75, -1.0
162.00, 0.0
162.25, 1.0
162.50, 0.0
162.75, -1.0
163.00, 0.0
163.25, 1.0
163.50, 0.0
163.75, -1.0
164.00, 0.0
164.25, 1.0
164.50, 0.0
164.75, -1.0
165.00, 0.0
165.25, 1.0
165.50, 0.0
165.75, -1.0
166.00, 0.0
166.25, 1.0
166.50, 0.0
166.75, -1.0
167.00, 0.0
167.25, 1.0
167.50, 0.0
167.75, -1.0
168.00, 0.0
168.25, 1.0
168.50, 0.0
168.75, -1.0
169.00, 0.0
169.25, 1.0
169.50, 0.0
169.75, -1.0
170.00, 0.0
170.25, 1.0
170.50, 0.0
170.75, -1.0
171.00, 0.0
171.25, 1.0
171.50, 0.0
171.75, -1.0
172.00, 0.0
172.25, 1.0
172.50, 0.0
172.75, -1.0
173.00, 0.0
173.25, 1.0
173.50, 0.0
173.75, -1.0
174.00, 0.0
174.25, 1.0
174.50, 0.0
174.75, -1.0
175.00, 0.0
175.25, 1.0
175.50, 0.0
175.75, -1.0
176.00, 0.0
176.25, 1.0
176.50, 0.0
176.75, -1.0
177.00, 0.0
177.25, 1.0
177.50, 0.0
177.75, -1.0
178.00, 0.0
178.25, 1.0
178.50, 0.0
178.75, -1.0
179.00, 0.0
179.25, 1.0
179.50, 0.0
179.75, -1.0
180.00, 0.0
180.25, 1.0
180.50, 0.0
180.75, -1.0
181.00, 0.0
181.25, 1.0
181.50, 0.0
181.75, -1.0
182.00, 0.0
182.25, 1.0
182.50, 0.0
182.75, -1.0
183.00, 0.0
183.25, 1.0
183.50, 0.0
183.75, -1.0
184.00, 0.0
184.25, 1.0
184.50, 0.0
184.75, -1.0
185.00, 0.0
185.25, 1.0
185.50, 0.0
185.75, -1.0
186.00, 0.0
186.25, 1.0
186.50, 0.0
186.75, -1.0
187.00, 0.0
187.25, 1.0
187.50, 0.0
187.75, -1.0
188.00, 0.0
188.25, 1.0
188.50, 0.0
188.75, -1.0
189.00, 0.0
189.25, 1.0
189.50, 0.0
189.75, -1.0
190.00, 0.0
190.25, 1.0
190.50, 0.0
190.75, -1.0
191.00, 0.0
191.25, 1.0
191.50, 0.0
191.75, -1.0
192.00, 0.0
192.25, 1.0
192.50, 0.0
192.75, -1.0
193.00, 0.0
193.25, 1.0
193.50, 0.0
193.75, -1.0
194.00, 0.0
194.25, 1.0
194.50, 0.0
194.75, -1.0
195.00, 0.0
195.25, 1.0
195.50, 0.0
195.75, -1.0
196.00, 0.0
196.25, 1.0
196.50, 0.0
196.75, -1.0
197.00, 0.0
197.25, 1.0
197.50, 0.0
197.75, -1.0
198.00, 0.0
198.25, 1.0
198.50, 0.0
198.75, -1.0
199.00, 0.0
199.25, 1.0
199.50, 0.0
199.75, -1.0
200.00, 0.0
200.25, 1.0
200.50, 0.0
200.75, -1.0
201.00, 0.0
201.25, 1.0
201.50, 0.0
201.75, -1.0
202.00, 0.0
202.25, 1.0
202.50, 0.0
202.75, -1.0
203.00, 0.0
203.25, 1.0
203.50, 0.0
203.75, -1.0
204.00, 0.0
204.25, 1.0
204.50, 0.0
204.75, -1.0
205.00, 0.0
205.25, 1.0
205.50, 0.0
205.75, -1.0
206.00, 0.0
206.25, 1.0
206.50, 0.0
206.75, -1.0
207.00, 0.0
207.25, 1.0
207.50, 0.0
207.75, -1.0
208.00, 0.0
208.25, 1.0
208.50, 0.0
208.75, -1.0
209.00, 0.0
209.25, 1.0
209.50, 0.0
209.75, -1.0
210.00, 0.0
210.25, 1.0
210.50, 0.0
210.75, -1.0
211.00, 0.0
211.25, 1.0
211.50, 0.0
211.75, -1.0
212.00, 0.0
212.25, 1.0
212.50, 0.0
212.75, -1.0
213.00, 0.0
213.25, 1.0
213.50, 0.0
213.75, -1.0
214.00, 0.0
214.25, 1.0
214.50, 0.0
214.75, -1.0
215.00, 0.0
215.25, 1.0
215.50, 0.0
215.75, -1.0
216.00, 0.0
216.25, 1.0
216.50, 0.0
216.75, -1.0
217.00, 0.0
217.25, 1.0
217.50, 0.0
217.75, -1.0
218.00, 0.0
218.25, 1.0
218.50, 0.0
218.75, -1.0
219.00, 0.0
219.25, 1.0
219.50, 0.0
219.75, -1.0
220.00, 0.0
220.25, 1.0
220.50, 0.0
220.75, -1.0
221.00, 0.0
221.25, 1.0
221.50, 0.0
221.75, -1.0
222.00, 0.0
222.25, 1.0
222.50, 0.0
222.75, -1.0
223.00, 0.0
223.25, 1.0
223.50, 0.0
223.75, -1.0
224.00, 0.0
224.25, 1.0
224.50, 0.0
224.75, -1.0
225.00, 0.0
225.25, 1.0
225.50, 0.0
225.75, -1.0
226.00, 0.0
226.25, 1.0
226.50, 0.0
226.75, -1.0
227.00, 0.0
227.25, 1.0
227.50, 0.0
227.75, -1.0
228.00, 0.0
228.25, 1.0
228.50, 0.0
228.75, -1.0
229.00, 0.0
229.25, 1.0
229.50, 0.0
229.75, -1.0
230.00, 0.0
230.25, 1.0
230.50, 0.0
230.75, -1.0
231.00, 0.0
231.25, 1.0
231.50, 0.0
231.75, -1.0
232.00, 0.0
232.25, 1.0
232.50, 0.0
232.75, -1.0
233.00, 0.0
233.25, 1.0
233.50, 0.0
233.75, -1.0
234.00, 0.0
234.25, 1.0
234.50, 0.0
234.75, -1.0
235.00, 0.0
235.25, 1.0
235.50, 0.0
235.75, -1.0
236.00, 0.0
236.25, 1.0
236.50, 0.0
236.75, -1.0
237.00, 0.0
237.25, 1.0
237.50, 0.0
237.75, -1.0
238.00, 0.0
238.25, 1.0
238.50, 0.0
238.75, -1.0
239.00, 0.0
239.25, 1.0
239.50, 0.0
239.75, -1.0
240.00, 0.0
240.25, 1.0
240.50, 0.0
240.75, -1.0
241.00, 0.0
241.25, 1.0
241.50, 0.0
241.75, -1.0
242.00, 0.0
242.25, 1.0
242.50, 0.0
242.75, -1.0
243.00, 0.0
243.25, 1.0
243.50, 0.0
243.75, -1.0
244.00, 0.0
244.25, 1.0
244.50, 0.0
244.75, -1.0
245.00, 0.0
245.25, 1.0
245.50, 0.0
245.75, -1.0
246.00, 0.0
246.25, 1.0
246.50, 0.0
246.75, -1.0
247.00, 0.0
247.25, 1.0
247.50, 0.0
247.75, -1.0
248.00, 0.0
248.25, 1.0
248.50, 0.0
248.75, -1.0
249.00, 0.0
249.25, 1.0
249.50, 0.0
249.75, -1.0
250.00, 0.0
250.25, 1.0
250.50, 0.0
250.75, -1.0
251.00, 0.0
251.25, 1.0
251.50, 0.0
251.75, -1.0
252.00, 0.0
252.25, 1.0
252.50, 0.0
252.75, -1.0
253.00, 0.0
253.25, 1.0
253.50, 0.0
253.75, -1.0
254.00, 0.0
254.25, 1.0
254.50, 0.0
254.75, -1.0
255.00, 0.0
255.25, 1.0
255.50, 0.0
255.75, -1.0
256.00, 0.0
256.25, 1.0
256.50, 0.0
256.75, -1.0
257.00, 0.0
257.25, 1.0
257.50, 0.0
257.75, -1.0
258.00, 0.0
258.25, 1.0
258.50, 0.0
258.75, -1.0
259.00, 0.0
259.25, 1.0
259.50, 0.0
259.75, -1.0
260.00, 0.0
260.25, 1.0
260.50, 0.0
260.75, -1.0
261.00, 0.0
261.25, 1.0
261.50, 0.0
261.75, -1.0
262.00, 0.0
262.25, 1.0
262.50, 0.0
262.75, -1.0
263.00, 0.0
263.25, 1.0
263.50, 0.0
263.75, -1.0
264.00, 0.0
264.25, 1.0
264.50, 0.0
264.75, -1.0
265.00, 0.0
265.25, 1.0
265.50, 0.0
265.75, -1.0
266.00, 0.0
266.25, 1.0
266.50, 0.0
266.75, -1.0
267.00, 0.0
267.25, 1.0
267.50, 0.0
267.75, -1.0
268.00, 0.0
268.25, 1.0
268.50, 0.0
268.75, -1.0
269.00, 0.0
269.25, 1.0
269.50, 0.0
269.75, -1.0
270.00, 0.0
270.25, 1.0
270.50, 0.0
270.75, -1.0
271.00, 0.0
271.25, 1.0
271.50, 0.0
271.75, -1.0
272.00, 0.0
272.25, 1.0
272.50, 0.0
272.75, -1.0
273.00, 0.0
273.25, 1.0
273.50, 0.0
273.75, -1.0
274.00, 0.0
274.25, 1.0
274.50, 0.0
274.75, -1.0
275.00, 0.0
275.25, 1.0
275.50, 0.0
275.75, -1.0
276.00, 0.0
276.25, 1.0
276.50, 0.0
276.75, -1.0
277.00, 0.0
277.25, 1.0
277.50, 0.0
277.75, -1.0
278.00, 0.0
278.25, 1.0
278.50, 0.0
278.75, -1.0
279.00, 0.0
279.25, 1.0
279.50, 0.0
279.75, -1.0
280.00, 0.0
280.25, 1.0
280.50, 0.0
280.75, -1.0
281.00, 0.0
281.25, 1.0
281.50, 0.0
281.75, -1.0
282.00, 0.0
282.25, 1.0
282.50, 0.0
282.75, -1.0
283.00, 0.0
283.25, 1.0
283.50, 0.0
283.75, -1.0
284.00, 0.0
284.25, 1.0
284.50, 0.0
284.75, -1.0
285.00, 0.0
285.25, 1.0
285.50, 0.0
285.75, -1.0
286.00, 0.0
286.25, 1.0
286.50, 0.0
286.75, -1.0
287.00, 0.0
287.25, 1.0
287.50, 0.0
287.75, -1.0
288.00, 0.0
288.25, 1.0
288.50, 0.0
288.75, -1.0
289.00, 0.0
289.25, 1.0
289.50, 0.0
289.75, -1.0
290.00, 0.0
290.25, 1.0
290.50, 0.0
290.75, -1.0
291.00, 0.0
291.25, 1.0
291.50, 0.0
291.75, -1.0
292.00, 0.0
292.25, 1.0
292.50, 0.0
292.75, -1.0
293.00, 0.0
293.25, 1.0
293.50, 0.0
293.75, -1.0
294.00, 0.0
294.25, 1.0
294.50, 0.0
294.75, -1.0
295.00, 0.0
295.25, 1.0
295.50, 0.0
295.75, -1.0
296.00, 0.0
296.25, 1.0
296.50, 0.0
296.75, -1.0
297.00, 0.0
297.25, 1.0
297.50, 0.0
297.75, -1.0
298.00, 0.0
298.25, 1.0
298.50, 0.0
298.75, -1.0
299.00, 0.0
299.25, 1.0
299.50, 0.0
299.75, -1.0
300.00, 0.0
300.25, 1.0
300.50, 0.0
300.75, -1.0
301.00, 0.0
301.25, 1.0
301.50, 0.0
301.75, -1.0
302.00, 0.0
302.25, 1.0
302.50, 0.0
302.75, -1.0
303.00, 0.0
303.25, 1.0
303.50, 0.0
303.75, -1.0
304.00, 0.0
304.25, 1.0
304.50, 0.0
304.75, -1.0
305.00, 0.0
305.25, 1.0
305.50, 0.0
305.75, -1.0
306.00, 0.0
306.25, 1.0
306.50, 0.0
306.75, -1.0
307.00, 0.0
307.25, 1.0
307.50, 0.0
307.75, -1.0
308.00, 0.0
308.25, 1.0
308.50, 0.0
308.75, -1.0
309.00, 0.0
309.25, 1.0
309.50, 0.0
309.75, -1.0
310.00, 0.0
310.25, 1.0
310.50, 0.0
310.75, -1.0
311.00, 0.0
311.25, 1.0
311.50, 0.0
311.75, -1.0
312.00, 0.0
312.25, 1.0
312.50, 0.0
312.75, -1.0
313.00, 0.0
313.25, 1.0
313.50, 0.0
313.75, -1.0
314.00, 0.0
314.25, 1.0
314.50, 0.0
314.75, -1.0
315.00, 0.0
315.25, 1.0
315.50, 0.0
315.75, -1.0
316.00, 0.0
316.25, 1.0
316.50, 0.0
316.75, -1.0
317.00, 0.0
317.25, 1.0
317.50, 0.0
317.75, -1.0
318.00, 0.0
318.25, 1.0
318.50, 0.0
318.75, -1.0
319.00, 0.0
319.25, 1.0
319.50, 0.0
319.75, -1.0
320.00, 0.0
320.25, 1.0
320.50, 0.0
320.75, -1.0
321.00, 0.0
321.25, 1.0
321.50, 0.0
321.75, -1.0
322.00, 0.0
322.25, 1.0
322.50, 0.0
322.75, -1.0
323.00, 0.0
323.25, 1.0
323.50, 0.0
323.75, -1.0
324.00, 0.0
324.25, 1.0
324.50, 0.0
324.75, -1.0
325.00, 0.0
325.25, 1.0
325.50, 0.0
325.75, -1.0
326.00, 0.0
326.25, 1.0
326.50, 0.0
326.75, -1.0
327.00, 0.0
327.25, 1.0
327.50, 0.0
327.75, -1.0
328.00, 0.0
328.25, 1.0
328.50, 0.0
328.75, -1.0
329.00, 0.0
329.25, 1.0
329.50, 0.0
329.75, -1.0
330.00, 0.0
330.25, 1.0
330.50, 0.0
330.75, -1.0
331.00, 0.0
331.25, 1.0
331.50, 0.0
331.75, -1.0
332.00, 0.0
332.25, 1.0
332.50, 0.0
332.75, -1.0
333.00, 0.0
333.25, 1.0
333.50, 0.0
333.75, -1.0
334.00, 0.0
334.25, 1.0
334.50, 0.0
334.75, -1.0
335.00, 0.0
335.25, 1.0
335.50, 0.0
335.75, -1.0
336.00, 0.0
336.25, 1.0
336.50, 0.0
336.75, -1.0
337.00, 0.0
337.25, 1.0
337.50, 0.0
337.75, -1.0
338.00, 0.0
338.25, 1.0
338.50, 0.0
338.75, -1.0
339.00, 0.0
339.25, 1.0
339.50, 0.0
339.75, -1.0
340.00, 0.0
340.25, 1.0
340.50, 0.0
340.75, -1.0
341.00, 0.0
341.25, 1.0
341.50, 0.0
341.75, -1.0
342.00, 0.0
342.25, 1.0
342.50, 0.0
342.75, -1.0
343.00, 0.0
343.25, 1.0
343.50, 0.0
343.75, -1.0
344.00, 0.0
344.25, 1.0
344.50, 0.0
344.75, -1.0
345.00, 0.0
345.25, 1.0
345.50, 0.0
345.75, -1.0
346.00, 0.0
346.25, 1.0
346.50, 0.0
346.75, -1.0
347.00, 0.0
347.25, 1.0
347.50, 0.0
347.75, -1.0
348.00, 0.0
348.25, 1.0
348.50, 0.0
348.75, -1.0
349.00, 0.0
349.25, 1.0
349.50, 0.0
349.75, -1.0
350.00, 0.0
350.25, 1.0
350.50, 0.0
350.75, -1.0
351.00, 0.0
351.25, 1.0
351.50, 0.0
351.75, -1.0
352.00, 0.0
352.25, 1.0
352.50, 0.0
352.75, -1.0
353.00, 0.0
353.25, 1.0
353.50, 0.0
353.75, -1.0
354.00, 0.0
354.25, 1.0
354.50, 0.0
354.75, -1.0
355.00, 0.0
355.25, 1.0
355.50, 0.0
355.75, -1.0
356.00, 0.0
356.25, 1.0
356.50, 0.0
356.75, -1.0
357.00, 0.0
357.25, 1.0
357.50, 0.0
357.75, -1.0
358.00, 0.0
358.25, 1.0
358.50, 0.0
358.75, -1.0
359.00, 0.0
359.25, 1.0
359.50, 0.0
359.75, -1.0
360.00, 0.0
360.25, 1.0
360.50, 0.0
360.75, -1.0
361.00, 0.0
361.25, 1.0
361.50, 0.0
361.75, -1.0
362.00, 0.0
362.25, 1.0
362.50, 0.0
362.75, -1.0
363.00, 0.0
363.25, 1.0
363.50, 0.0
363.75, -1.0
364.00, 0.0
364.25, 1.0
364.50, 0.0
364.75, -1.0
365.00, 0.0
365.25, 1.0
365.50, 0.0
365.75, -1.0
366.00, 0.0
366.25, 1.0
366.50, 0.0
366.75, -1.0
367.00, 0.0
367.25, 1.0
367.50, 0.0
367.75, -1.0
368.00, 0.0
368.25, 1.0
368.50, 0.0
368.75, -1.0
369.00, 0.0
369.25, 1.0
369.50, 0.0
369.75, -1.0
370.00, 0.0
370.25, 1.0
370.50, 0.0
370.75, -1.0
371.00, 0.0
371.25, 1.0
371.50, 0.0
371.75, -1.0
372.00, 0.0
372.25, 1.0
372.50, 0.0
372.75, -1.0
373.00, 0.0
373.25, 1.0
373.50, 0.0
373.75, -1.0
374.00, 0.0
374.25, 1.0
374.50, 0.0
374.75, -1.0
375.00, 0.0
375.25, 1.0
375.50, 0.0
375.75, -1.0
376.00, 0.0
376.25, 1.0
376.50, 0.0
376.75, -1.0
377.00, 0.0
377.25, 1.0
377.50, 0.0
377.75, -1.0
378.00, 0.0
378.25, 1.0
378.50, 0.0
378.75, -1.0
379.00, 0.0
379.25, 1.0
379.50, 0.0
379.75, -1.0
380.00, 0.0
380.25, 1.0
380.50, 0.0
380.75, -1.0
381.00, 0.0
381.25, 1.0
381.50, 0.0
381.75, -1.0
382.00, 0.0
382.25, 1.0
382.50, 0.0
382.75, -1.0
383.00, 0.0
383.25, 1.0
383.50, 0.0
383.75, -1.0
384.00, 0.0
384.25, 1.0
384.50, 0.0
384.75, -1.0
385.00, 0.0
385.25, 1.0
385.50, 0.0
385.75, -1.0
386.00, 0.0
386.25, 1.0
386.50, 0.0
386.75, -1.0
387.00, 0.0
387.25, 1.0
387.50, 0.0
387.75, -1.0
388.00, 0.0
388.25, 1.0
388.50, 0.0
388.75, -1.0
389.00, 0.0
389.25, 1.0
389.50, 0.0
389.75, -1.0
390.00, 0.0
390.25, 1.0
390.50, 0.0
390.75, -1.0
391.00, 0.0
391.25, 1.0
391.50, 0.0
391.75, -1.0
392.00, 0.0
392.25, 1.0
392.50, 0.0
392.75, -1.0
393.00, 0.0
393.25, 1.0
393.50, 0.0
393.75, -1.0
394.00, 0.0
394.25, 1.0
394.50, 0.0
394.75, -1.0
395.00, 0.0
395.25, 1.0
395.50, 0.0
395.75, -1.0
396.00, 0.0
396.25, 1.0
396.50, 0.0
396.75, -1.0
397.00, 0.0
397.25, 1.0
397.50, 0.0
397.75, -1.0
398.00, 0.0
398.25, 1.0
398.50, 0.0
398.75, -1.0
399.00, 0.0
399.25, 1.0
399.50, 0.0
399.75, -1.0
400.00, 0.0
400.25, 1.0
400.50, 0.0
400.75, -1.0
401.00, 0.0
401.25, 1.0
401.50, 0.0
401.75, -1.0
402.00, 0.0
402.25, 1.0
402.50, 0.0
402.75, -1.0
403.00, 0.0
403.25, 1.0
403.50, 0.0
403.75, -1.0
404.00, 0.0
404.25, 1.0
404.50, 0.0
404.75, -1.0
405.00, 0.0
405.25, 1.0
405.50, 0.0
405.75, -1.0
406.00, 0.0
406.25, 1.0
406.50, 0.0
406.75, -1.0
407.00, 0.0
407.25, 1.0
407.50, 0.0
407.75, -1.0
408.00, 0.0
408.25, 1.0
408.50, 0.0
408.75, -1.0
409.00, 0.0
409.25, 1.0
409.50, 0.0
409.75, -1.0
410.00, 0.0
410.25, 1.0
410.50, 0.0
410.75, -1.0
411.00, 0.0
411.25, 1.0
411.50, 0.0
411.75, -1.0
412.00, 0.0
412.25, 1.0
412.50, 0.0
412.75, -1.0
413.00, 0.0
413.25, 1.0
413.50, 0.0
413.75, -1.0
414.00, 0.0
414.25, 1.0
414.50, 0.0
414.75, -1.0
415.00, 0.0
415.25, 1.0
415.50, 0.0
415.75, -1.0
416.00, 0.0
416.25, 1.0
416.50, 0.0
416.75, -1.0
417.00, 0.0
417.25, 1.0
417.50, 0.0
417.75, -1.0
418.00, 0.0
418.25, 1.0
418.50, 0.0
418.75, -1.0
419.00, 0.0
419.25, 1.0
419.50, 0.0
419.75, -1.0
420.00, 0.0
420.25, 1.0
420.50, 0.0
420.75, -1.0
421.00, 0.0
421.25, 1.0
421.50, 0.0
421.75, -1.0
422.00, 0.0
422.25, 1.0
422.50, 0.0
422.75, -1.0
423.00, 0.0
423.25, 1.0
423.50, 0.0
423.75, -1.0
424.00, 0.0
424.25, 1.0
424.50, 0.0
424.75, -1.0
425.00, 0.0
425.25, 1.0
425.50, 0.0
425.75, -1.0
426.00, 0.0
426.25, 1.0
426.50, 0.0
426.75, -1.0
427.00, 0.0
427.25, 1.0
427.50, 0.0
427.75, -1.0
428.00, 0.0
428.25, 1.0
428.50, 0.0
428.75, -1.0
429.00, 0.0
429.25, 1.0
429.50, 0.0
429.75, -1.0
430.00, 0.0
430.25, 1.0
430.50, 0.0
430.75, -1.0
431.00, 0.0
431.25, 1.0
431.50, 0.0
431.75, -1.0
432.00, 0.0
432.25, 1.0
432.50, 0.0
432.75, -1.0
433.00, 0.0
433.25, 1.0
433.50, 0.0
433.75, -1.0
434.00, 0.0
434.25, 1.0
434.50, 0.0
434.75, -1.0
435.00, 0.0
435.25, 1.0
435.50, 0.0
435.75, -1.0
436.00, 0.0
436.25, 1.0
436.50, 0.0
436.75, -1.0
437.00, 0.0
437.25, 1.0
437.50, 0.0
437.75, -1.0
438.00, 0.0
438.25, 1.0
438.50, 0.0
438.75, -1.0
439.00, 0.0
439.25, 1.0
439.50, 0.0
439.75, -1.0
440.00, 0.0
440.25, 1.0
440.50, 0.0
440.75, -1.0
441.00, 0.0
441.25, 1.0
441.50, 0.0
441.75, -1.0
442.00, 0.0
442.25, 1.0
442.50, 0.0
442.75, -1.0
443.00, 0.0
443.25, 1.0
443.50, 0.0
443.75, -1.0
444.00, 0.0
444.25, 1.0
444.50, 0.0
444.75, -1.0
445.00, 0.0
445.25, 1.0
445.50, 0.0
445.75, -1.0
446.00, 0.0
446.25, 1.0
446.50, 0.0
446.75, -1.0
447.00, 0.0
447.25, 1.0
447.50, 0.0
447.75, -1.0
448.00, 0.0
448.25, 1.0
448.50, 0.0
448.75, -1.0
449.00, 0.0
449.25, 1.0
449.50, 0.0
449.75, -1.0
450.00, 0.0
450.25, 1.0
450.50, 0.0
450.75, -1.0
451.00, 0.0
451.25, 1.0
451.50, 0.0
451.75, -1.0
452.00, 0.0
452.25, 1.0
452.50, 0.0
452.75, -1.0
453.00, 0.0
453.25, 1.0
453.50, 0.0
453.75, -1.0
454.00, 0.0
454.25, 1.0
454.50, 0.0
454.75, -1.0
455.00, 0.0
455.25, 1.0
455.50, 0.0
455.75, -1.0
456.00, 0.0
456.25, 1.0
456.50, 0.0
456.75, -1.0
457.00, 0.0
457.25, 1.0
457.50, 0.0
457.75, -1.0
458.00, 0.0
458.25, 1.0
458.50, 0.0
458.75, -1.0
459.00, 0.0
459.25, 1.0
459.50, 0.0
459.75, -1.0
460.00, 0.0
460.25, 1.0
460.50, 0.0
460.75, -1.0
461.00, 0.0
461.25, 1.0
461.50, 0.0
461.75, -1.0
462.00, 0.0
462.25, 1.0
462.50, 0.0
462.75, -1.0
463.00, 0.0
463.25, 1.0
463.50, 0.0
463.75, -1.0
464.00, 0.0
464.25, 1.0
464.50, 0.0
464.75, -1.0
465.00, 0.0
465.25, 1.0
465.50, 0.0
465.75, -1.0
466.00, 0.0
466.25, 1.0
466.50, 0.0
466.75, -1.0
467.00, 0.0
467.25, 1.0
467.50, 0.0
467.75, -1.0
468.00, 0.0
468.25, 1.0
468.50, 0.0
468.75, -1.0
469.00, 0.0
469.25, 1.0
469.50, 0.0
469.75, -1.0
470.00, 0.0
470.25, 1.0
470.50, 0.0
470.75, -1.0
471.00, 0.0
471.25, 1.0
471.50, 0.0
471.75, -1.0
472.00, 0.0
472.25, 1.0
472.50, 0.0
472.75, -1.0
473.00, 0.0
473.25, 1.0
473.50, 0.0
473.75, -1.0
474.00, 0.0
474.25, 1.0
474.50, 0.0
474.75, -1.0
475.00, 0.0
475.25, 1.0
475.50, 0.0
475.75, -1.0
476.00, 0.0
476.25, 1.0
476.50, 0.0
476.75, -1.0
477.00, 0.0
477.25, 1.0
477.50, 0.0
477.75, -1.0
478.00, 0.0
478.25, 1.0
478.50, 0.0
478.75, -1.0
479.00, 0.0
479.25, 1.0
479.50, 0.0
479.75, -1.0
480.00, 0.0
480.25, 1.0
480.50, 0.0
480.75, -1.0
481.00, 0.0
481.25, 1.0
481.50, 0.0
481.75, -1.0
482.00, 0.0
482.25, 1.0
482.50, 0.0
482.75, -1.0
483.00, 0.0
483.25, 1.0
483.50, 0.0
483.75, -1.0
484.00, 0.0
484.25, 1.0
484.50, 0.0
484.75, -1.0
485.00, 0.0
485.25, 1.0
485.50, 0.0
485.75, -1.0
486.00, 0.0
486.25, 1.0
486.50, 0.0
486.75, -1.0
487.00, 0.0
487.25, 1.0
487.50, 0.0
487.75, -1.0
488.00, 0.0
488.25, 1.0
488.50, 0.0
488.75, -1.0
489.00, 0.0
489.25, 1.0
489.50, 0.0
489.75, -1.0
490.00, 0.0
490.25, 1.0
490.50, 0.0
490.75, -1.0
491.00, 0.0
491.25, 1.0
491.50, 0.0
491.75, -1.0
492.00, 0.0
492.25, 1.0
492.50, 0.0
492.75, -1.0
493.00, 0.0
493.25, 1.0
493.50, 0.0
493.75, -1.0
494.00, 0.0
494.25, 1.0
494.50, 0.0
494.75, -1.0
495.00, 0.0
495.25, 1.0
495.50, 0.0
495.75, -1.0
496.00, 0.0
496.25, 1.0
496.50, 0.0
496.75, -1.0
497.00, 0.0
497.25, 1.0
497.50, 0.0
497.75, -1.0
498.00, 0.0
498.25, 1.0
498.50, 0.0
498.75, -1.0
499.00, 0.0
499.25, 1.0
499.50, 0.0
499.75, -1.0
500.00, 0.0
** STEP: FIFTY FULLY REVERSED CYCLES
** ----------------------------------------------------------------
*STEP, NAME=CYCLIC_500, NLGEOM=NO, INC=60000
*STATIC
0.001, 500.0, 1.0E-08, 0.02

*BOUNDARY
LEFT_FACE, 1, 1, 0.0
BLOCK_INST.1, 2, 3, 0.0
BLOCK_INST.4, 3, 3, 0.0
*BOUNDARY, AMPLITUDE=AMP_CYCLIC_500
RIGHT_FACE, 1, 1, 0.05

*OUTPUT, FIELD, FREQUENCY=1
*NODE OUTPUT
U, RF
*ELEMENT OUTPUT
S, SDV

*OUTPUT, HISTORY, FREQUENCY=1
*NODE OUTPUT, NSET=RIGHT_FACE
U1, RF1

*END STEP
