** Stage 16N-R3J restart-preserved +5 cycle jump: R3J1_250_to_255_to_500
** Native Abaqus restart, extrapolated overwrite of independent STATEV(1:25) at KINC=0.
** Slope pair: 249 -> 250.
*HEADING
Stage 16N-R3J 250 to 255 to 500
*RESTART, READ, STEP=250, INC=58
*STEP, NAME=CYCLE_0251, NLGEOM=NO, INC=160
*STATIC
0.005, 1.0, 1.0E-08, 0.025
*BOUNDARY, AMPLITUDE=AMP_ONE_CYCLE
RIGHT_EDGE, 1, 1, 0.10
*OUTPUT, HISTORY, FREQUENCY=1
*NODE OUTPUT, NSET=RIGHT_EDGE
U1, RF1
*END STEP
*STEP, NAME=CYCLE_0252, NLGEOM=NO, INC=160
*STATIC
0.005, 1.0, 1.0E-08, 0.025
*BOUNDARY, AMPLITUDE=AMP_ONE_CYCLE
RIGHT_EDGE, 1, 1, 0.10
*OUTPUT, HISTORY, FREQUENCY=1
*NODE OUTPUT, NSET=RIGHT_EDGE
U1, RF1
*END STEP
*STEP, NAME=CYCLE_0253, NLGEOM=NO, INC=160
*STATIC
0.005, 1.0, 1.0E-08, 0.025
*BOUNDARY, AMPLITUDE=AMP_ONE_CYCLE
RIGHT_EDGE, 1, 1, 0.10
*OUTPUT, HISTORY, FREQUENCY=1
*NODE OUTPUT, NSET=RIGHT_EDGE
U1, RF1
*END STEP
*STEP, NAME=CYCLE_0254, NLGEOM=NO, INC=160
*STATIC
0.005, 1.0, 1.0E-08, 0.025
*BOUNDARY, AMPLITUDE=AMP_ONE_CYCLE
RIGHT_EDGE, 1, 1, 0.10
*OUTPUT, HISTORY, FREQUENCY=1
*NODE OUTPUT, NSET=RIGHT_EDGE
U1, RF1
*END STEP
*STEP, NAME=CYCLE_0255, NLGEOM=NO, INC=160
*STATIC
0.005, 1.0, 1.0E-08, 0.025
*BOUNDARY, AMPLITUDE=AMP_ONE_CYCLE
RIGHT_EDGE, 1, 1, 0.10
*OUTPUT, HISTORY, FREQUENCY=1
*NODE OUTPUT, NSET=RIGHT_EDGE
U1, RF1
*END STEP
*STEP, NAME=CYCLE_0256, NLGEOM=NO, INC=160
*STATIC
0.005, 1.0, 1.0E-08, 0.025
*BOUNDARY, AMPLITUDE=AMP_ONE_CYCLE
RIGHT_EDGE, 1, 1, 0.10
*OUTPUT, HISTORY, FREQUENCY=1
*NODE OUTPUT, NSET=RIGHT_EDGE
U1, RF1
*END STEP
*STEP, NAME=CYCLE_0257, NLGEOM=NO, INC=160
*STATIC
0.005, 1.0, 1.0E-08, 0.025
*BOUNDARY, AMPLITUDE=AMP_ONE_CYCLE
RIGHT_EDGE, 1, 1, 0.10
*OUTPUT, HISTORY, FREQUENCY=1
*NODE OUTPUT, NSET=RIGHT_EDGE
U1, RF1
*END STEP
*STEP, NAME=CYCLE_0258, NLGEOM=NO, INC=160
*STATIC
0.005, 1.0, 1.0E-08, 0.025
*BOUNDARY, AMPLITUDE=AMP_ONE_CYCLE
RIGHT_EDGE, 1, 1, 0.10
*OUTPUT, HISTORY, FREQUENCY=1
*NODE OUTPUT, NSET=RIGHT_EDGE
U1, RF1
*END STEP
*STEP, NAME=CYCLE_0259, NLGEOM=NO, INC=160
*STATIC
0.005, 1.0, 1.0E-08, 0.025
*BOUNDARY, AMPLITUDE=AMP_ONE_CYCLE
RIGHT_EDGE, 1, 1, 0.10
*OUTPUT, HISTORY, FREQUENCY=1
*NODE OUTPUT, NSET=RIGHT_EDGE
U1, RF1
*END STEP
*STEP, NAME=CYCLE_0260, NLGEOM=NO, INC=160
*STATIC
0.005, 1.0, 1.0E-08, 0.025
*BOUNDARY, AMPLITUDE=AMP_ONE_CYCLE
RIGHT_EDGE, 1, 1, 0.10
*OUTPUT, HISTORY, FREQUENCY=1
*NODE OUTPUT, NSET=RIGHT_EDGE
U1, RF1
*END STEP
*STEP, NAME=CYCLE_0261, NLGEOM=NO, INC=160
*STATIC
0.005, 1.0, 1.0E-08, 0.025
*BOUNDARY, AMPLITUDE=AMP_ONE_CYCLE
RIGHT_EDGE, 1, 1, 0.10
*OUTPUT, HISTORY, FREQUENCY=1
*NODE OUTPUT, NSET=RIGHT_EDGE
U1, RF1
*END STEP
*STEP, NAME=CYCLE_0262, NLGEOM=NO, INC=160
*STATIC
0.005, 1.0, 1.0E-08, 0.025
*BOUNDARY, AMPLITUDE=AMP_ONE_CYCLE
RIGHT_EDGE, 1, 1, 0.10
*OUTPUT, HISTORY, FREQUENCY=1
*NODE OUTPUT, NSET=RIGHT_EDGE
U1, RF1
*END STEP
*STEP, NAME=CYCLE_0263, NLGEOM=NO, INC=160
*STATIC
0.005, 1.0, 1.0E-08, 0.025
*BOUNDARY, AMPLITUDE=AMP_ONE_CYCLE
RIGHT_EDGE, 1, 1, 0.10
*OUTPUT, HISTORY, FREQUENCY=1
*NODE OUTPUT, NSET=RIGHT_EDGE
U1, RF1
*END STEP
*STEP, NAME=CYCLE_0264, NLGEOM=NO, INC=160
*STATIC
0.005, 1.0, 1.0E-08, 0.025
*BOUNDARY, AMPLITUDE=AMP_ONE_CYCLE
RIGHT_EDGE, 1, 1, 0.10
*OUTPUT, HISTORY, FREQUENCY=1
*NODE OUTPUT, NSET=RIGHT_EDGE
U1, RF1
*END STEP
*STEP, NAME=CYCLE_0265, NLGEOM=NO, INC=160
*STATIC
0.005, 1.0, 1.0E-08, 0.025
*BOUNDARY, AMPLITUDE=AMP_ONE_CYCLE
RIGHT_EDGE, 1, 1, 0.10
*OUTPUT, HISTORY, FREQUENCY=1
*NODE OUTPUT, NSET=RIGHT_EDGE
U1, RF1
*END STEP
*STEP, NAME=CYCLE_0266, NLGEOM=NO, INC=160
*STATIC
0.005, 1.0, 1.0E-08, 0.025
*BOUNDARY, AMPLITUDE=AMP_ONE_CYCLE
RIGHT_EDGE, 1, 1, 0.10
*OUTPUT, HISTORY, FREQUENCY=1
*NODE OUTPUT, NSET=RIGHT_EDGE
U1, RF1
*END STEP
*STEP, NAME=CYCLE_0267, NLGEOM=NO, INC=160
*STATIC
0.005, 1.0, 1.0E-08, 0.025
*BOUNDARY, AMPLITUDE=AMP_ONE_CYCLE
RIGHT_EDGE, 1, 1, 0.10
*OUTPUT, HISTORY, FREQUENCY=1
*NODE OUTPUT, NSET=RIGHT_EDGE
U1, RF1
*END STEP
*STEP, NAME=CYCLE_0268, NLGEOM=NO, INC=160
*STATIC
0.005, 1.0, 1.0E-08, 0.025
*BOUNDARY, AMPLITUDE=AMP_ONE_CYCLE
RIGHT_EDGE, 1, 1, 0.10
*OUTPUT, HISTORY, FREQUENCY=1
*NODE OUTPUT, NSET=RIGHT_EDGE
U1, RF1
*END STEP
*STEP, NAME=CYCLE_0269, NLGEOM=NO, INC=160
*STATIC
0.005, 1.0, 1.0E-08, 0.025
*BOUNDARY, AMPLITUDE=AMP_ONE_CYCLE
RIGHT_EDGE, 1, 1, 0.10
*OUTPUT, HISTORY, FREQUENCY=1
*NODE OUTPUT, NSET=RIGHT_EDGE
U1, RF1
*END STEP
*STEP, NAME=CYCLE_0270, NLGEOM=NO, INC=160
*STATIC
0.005, 1.0, 1.0E-08, 0.025
*BOUNDARY, AMPLITUDE=AMP_ONE_CYCLE
RIGHT_EDGE, 1, 1, 0.10
*OUTPUT, HISTORY, FREQUENCY=1
*NODE OUTPUT, NSET=RIGHT_EDGE
U1, RF1
*END STEP
*STEP, NAME=CYCLE_0271, NLGEOM=NO, INC=160
*STATIC
0.005, 1.0, 1.0E-08, 0.025
*BOUNDARY, AMPLITUDE=AMP_ONE_CYCLE
RIGHT_EDGE, 1, 1, 0.10
*OUTPUT, HISTORY, FREQUENCY=1
*NODE OUTPUT, NSET=RIGHT_EDGE
U1, RF1
*END STEP
*STEP, NAME=CYCLE_0272, NLGEOM=NO, INC=160
*STATIC
0.005, 1.0, 1.0E-08, 0.025
*BOUNDARY, AMPLITUDE=AMP_ONE_CYCLE
RIGHT_EDGE, 1, 1, 0.10
*OUTPUT, HISTORY, FREQUENCY=1
*NODE OUTPUT, NSET=RIGHT_EDGE
U1, RF1
*END STEP
*STEP, NAME=CYCLE_0273, NLGEOM=NO, INC=160
*STATIC
0.005, 1.0, 1.0E-08, 0.025
*BOUNDARY, AMPLITUDE=AMP_ONE_CYCLE
RIGHT_EDGE, 1, 1, 0.10
*OUTPUT, HISTORY, FREQUENCY=1
*NODE OUTPUT, NSET=RIGHT_EDGE
U1, RF1
*END STEP
*STEP, NAME=CYCLE_0274, NLGEOM=NO, INC=160
*STATIC
0.005, 1.0, 1.0E-08, 0.025
*BOUNDARY, AMPLITUDE=AMP_ONE_CYCLE
RIGHT_EDGE, 1, 1, 0.10
*OUTPUT, HISTORY, FREQUENCY=1
*NODE OUTPUT, NSET=RIGHT_EDGE
U1, RF1
*END STEP
*STEP, NAME=CYCLE_0275, NLGEOM=NO, INC=160
*STATIC
0.005, 1.0, 1.0E-08, 0.025
*BOUNDARY, AMPLITUDE=AMP_ONE_CYCLE
RIGHT_EDGE, 1, 1, 0.10
*OUTPUT, HISTORY, FREQUENCY=1
*NODE OUTPUT, NSET=RIGHT_EDGE
U1, RF1
*END STEP
*STEP, NAME=CYCLE_0276, NLGEOM=NO, INC=160
*STATIC
0.005, 1.0, 1.0E-08, 0.025
*BOUNDARY, AMPLITUDE=AMP_ONE_CYCLE
RIGHT_EDGE, 1, 1, 0.10
*OUTPUT, HISTORY, FREQUENCY=1
*NODE OUTPUT, NSET=RIGHT_EDGE
U1, RF1
*END STEP
*STEP, NAME=CYCLE_0277, NLGEOM=NO, INC=160
*STATIC
0.005, 1.0, 1.0E-08, 0.025
*BOUNDARY, AMPLITUDE=AMP_ONE_CYCLE
RIGHT_EDGE, 1, 1, 0.10
*OUTPUT, HISTORY, FREQUENCY=1
*NODE OUTPUT, NSET=RIGHT_EDGE
U1, RF1
*END STEP
*STEP, NAME=CYCLE_0278, NLGEOM=NO, INC=160
*STATIC
0.005, 1.0, 1.0E-08, 0.025
*BOUNDARY, AMPLITUDE=AMP_ONE_CYCLE
RIGHT_EDGE, 1, 1, 0.10
*OUTPUT, HISTORY, FREQUENCY=1
*NODE OUTPUT, NSET=RIGHT_EDGE
U1, RF1
*END STEP
*STEP, NAME=CYCLE_0279, NLGEOM=NO, INC=160
*STATIC
0.005, 1.0, 1.0E-08, 0.025
*BOUNDARY, AMPLITUDE=AMP_ONE_CYCLE
RIGHT_EDGE, 1, 1, 0.10
*OUTPUT, HISTORY, FREQUENCY=1
*NODE OUTPUT, NSET=RIGHT_EDGE
U1, RF1
*END STEP
*STEP, NAME=CYCLE_0280, NLGEOM=NO, INC=160
*STATIC
0.005, 1.0, 1.0E-08, 0.025
*BOUNDARY, AMPLITUDE=AMP_ONE_CYCLE
RIGHT_EDGE, 1, 1, 0.10
*OUTPUT, HISTORY, FREQUENCY=1
*NODE OUTPUT, NSET=RIGHT_EDGE
U1, RF1
*END STEP
*STEP, NAME=CYCLE_0281, NLGEOM=NO, INC=160
*STATIC
0.005, 1.0, 1.0E-08, 0.025
*BOUNDARY, AMPLITUDE=AMP_ONE_CYCLE
RIGHT_EDGE, 1, 1, 0.10
*OUTPUT, HISTORY, FREQUENCY=1
*NODE OUTPUT, NSET=RIGHT_EDGE
U1, RF1
*END STEP
*STEP, NAME=CYCLE_0282, NLGEOM=NO, INC=160
*STATIC
0.005, 1.0, 1.0E-08, 0.025
*BOUNDARY, AMPLITUDE=AMP_ONE_CYCLE
RIGHT_EDGE, 1, 1, 0.10
*OUTPUT, HISTORY, FREQUENCY=1
*NODE OUTPUT, NSET=RIGHT_EDGE
U1, RF1
*END STEP
*STEP, NAME=CYCLE_0283, NLGEOM=NO, INC=160
*STATIC
0.005, 1.0, 1.0E-08, 0.025
*BOUNDARY, AMPLITUDE=AMP_ONE_CYCLE
RIGHT_EDGE, 1, 1, 0.10
*OUTPUT, HISTORY, FREQUENCY=1
*NODE OUTPUT, NSET=RIGHT_EDGE
U1, RF1
*END STEP
*STEP, NAME=CYCLE_0284, NLGEOM=NO, INC=160
*STATIC
0.005, 1.0, 1.0E-08, 0.025
*BOUNDARY, AMPLITUDE=AMP_ONE_CYCLE
RIGHT_EDGE, 1, 1, 0.10
*OUTPUT, HISTORY, FREQUENCY=1
*NODE OUTPUT, NSET=RIGHT_EDGE
U1, RF1
*END STEP
*STEP, NAME=CYCLE_0285, NLGEOM=NO, INC=160
*STATIC
0.005, 1.0, 1.0E-08, 0.025
*BOUNDARY, AMPLITUDE=AMP_ONE_CYCLE
RIGHT_EDGE, 1, 1, 0.10
*OUTPUT, HISTORY, FREQUENCY=1
*NODE OUTPUT, NSET=RIGHT_EDGE
U1, RF1
*END STEP
*STEP, NAME=CYCLE_0286, NLGEOM=NO, INC=160
*STATIC
0.005, 1.0, 1.0E-08, 0.025
*BOUNDARY, AMPLITUDE=AMP_ONE_CYCLE
RIGHT_EDGE, 1, 1, 0.10
*OUTPUT, HISTORY, FREQUENCY=1
*NODE OUTPUT, NSET=RIGHT_EDGE
U1, RF1
*END STEP
*STEP, NAME=CYCLE_0287, NLGEOM=NO, INC=160
*STATIC
0.005, 1.0, 1.0E-08, 0.025
*BOUNDARY, AMPLITUDE=AMP_ONE_CYCLE
RIGHT_EDGE, 1, 1, 0.10
*OUTPUT, HISTORY, FREQUENCY=1
*NODE OUTPUT, NSET=RIGHT_EDGE
U1, RF1
*END STEP
*STEP, NAME=CYCLE_0288, NLGEOM=NO, INC=160
*STATIC
0.005, 1.0, 1.0E-08, 0.025
*BOUNDARY, AMPLITUDE=AMP_ONE_CYCLE
RIGHT_EDGE, 1, 1, 0.10
*OUTPUT, HISTORY, FREQUENCY=1
*NODE OUTPUT, NSET=RIGHT_EDGE
U1, RF1
*END STEP
*STEP, NAME=CYCLE_0289, NLGEOM=NO, INC=160
*STATIC
0.005, 1.0, 1.0E-08, 0.025
*BOUNDARY, AMPLITUDE=AMP_ONE_CYCLE
RIGHT_EDGE, 1, 1, 0.10
*OUTPUT, HISTORY, FREQUENCY=1
*NODE OUTPUT, NSET=RIGHT_EDGE
U1, RF1
*END STEP
*STEP, NAME=CYCLE_0290, NLGEOM=NO, INC=160
*STATIC
0.005, 1.0, 1.0E-08, 0.025
*BOUNDARY, AMPLITUDE=AMP_ONE_CYCLE
RIGHT_EDGE, 1, 1, 0.10
*OUTPUT, HISTORY, FREQUENCY=1
*NODE OUTPUT, NSET=RIGHT_EDGE
U1, RF1
*END STEP
*STEP, NAME=CYCLE_0291, NLGEOM=NO, INC=160
*STATIC
0.005, 1.0, 1.0E-08, 0.025
*BOUNDARY, AMPLITUDE=AMP_ONE_CYCLE
RIGHT_EDGE, 1, 1, 0.10
*OUTPUT, HISTORY, FREQUENCY=1
*NODE OUTPUT, NSET=RIGHT_EDGE
U1, RF1
*END STEP
*STEP, NAME=CYCLE_0292, NLGEOM=NO, INC=160
*STATIC
0.005, 1.0, 1.0E-08, 0.025
*BOUNDARY, AMPLITUDE=AMP_ONE_CYCLE
RIGHT_EDGE, 1, 1, 0.10
*OUTPUT, HISTORY, FREQUENCY=1
*NODE OUTPUT, NSET=RIGHT_EDGE
U1, RF1
*END STEP
*STEP, NAME=CYCLE_0293, NLGEOM=NO, INC=160
*STATIC
0.005, 1.0, 1.0E-08, 0.025
*BOUNDARY, AMPLITUDE=AMP_ONE_CYCLE
RIGHT_EDGE, 1, 1, 0.10
*OUTPUT, HISTORY, FREQUENCY=1
*NODE OUTPUT, NSET=RIGHT_EDGE
U1, RF1
*END STEP
*STEP, NAME=CYCLE_0294, NLGEOM=NO, INC=160
*STATIC
0.005, 1.0, 1.0E-08, 0.025
*BOUNDARY, AMPLITUDE=AMP_ONE_CYCLE
RIGHT_EDGE, 1, 1, 0.10
*OUTPUT, HISTORY, FREQUENCY=1
*NODE OUTPUT, NSET=RIGHT_EDGE
U1, RF1
*END STEP
*STEP, NAME=CYCLE_0295, NLGEOM=NO, INC=160
*STATIC
0.005, 1.0, 1.0E-08, 0.025
*BOUNDARY, AMPLITUDE=AMP_ONE_CYCLE
RIGHT_EDGE, 1, 1, 0.10
*OUTPUT, HISTORY, FREQUENCY=1
*NODE OUTPUT, NSET=RIGHT_EDGE
U1, RF1
*END STEP
*STEP, NAME=CYCLE_0296, NLGEOM=NO, INC=160
*STATIC
0.005, 1.0, 1.0E-08, 0.025
*BOUNDARY, AMPLITUDE=AMP_ONE_CYCLE
RIGHT_EDGE, 1, 1, 0.10
*OUTPUT, HISTORY, FREQUENCY=1
*NODE OUTPUT, NSET=RIGHT_EDGE
U1, RF1
*END STEP
*STEP, NAME=CYCLE_0297, NLGEOM=NO, INC=160
*STATIC
0.005, 1.0, 1.0E-08, 0.025
*BOUNDARY, AMPLITUDE=AMP_ONE_CYCLE
RIGHT_EDGE, 1, 1, 0.10
*OUTPUT, HISTORY, FREQUENCY=1
*NODE OUTPUT, NSET=RIGHT_EDGE
U1, RF1
*END STEP
*STEP, NAME=CYCLE_0298, NLGEOM=NO, INC=160
*STATIC
0.005, 1.0, 1.0E-08, 0.025
*BOUNDARY, AMPLITUDE=AMP_ONE_CYCLE
RIGHT_EDGE, 1, 1, 0.10
*OUTPUT, HISTORY, FREQUENCY=1
*NODE OUTPUT, NSET=RIGHT_EDGE
U1, RF1
*END STEP
*STEP, NAME=CYCLE_0299, NLGEOM=NO, INC=160
*STATIC
0.005, 1.0, 1.0E-08, 0.025
*BOUNDARY, AMPLITUDE=AMP_ONE_CYCLE
RIGHT_EDGE, 1, 1, 0.10
*OUTPUT, HISTORY, FREQUENCY=1
*NODE OUTPUT, NSET=RIGHT_EDGE
U1, RF1
*END STEP
*STEP, NAME=CYCLE_0300, NLGEOM=NO, INC=160
*STATIC
0.005, 1.0, 1.0E-08, 0.025
*BOUNDARY, AMPLITUDE=AMP_ONE_CYCLE
RIGHT_EDGE, 1, 1, 0.10
*OUTPUT, HISTORY, FREQUENCY=1
*NODE OUTPUT, NSET=RIGHT_EDGE
U1, RF1
*END STEP
*STEP, NAME=CYCLE_0301, NLGEOM=NO, INC=160
*STATIC
0.005, 1.0, 1.0E-08, 0.025
*BOUNDARY, AMPLITUDE=AMP_ONE_CYCLE
RIGHT_EDGE, 1, 1, 0.10
*OUTPUT, HISTORY, FREQUENCY=1
*NODE OUTPUT, NSET=RIGHT_EDGE
U1, RF1
*END STEP
*STEP, NAME=CYCLE_0302, NLGEOM=NO, INC=160
*STATIC
0.005, 1.0, 1.0E-08, 0.025
*BOUNDARY, AMPLITUDE=AMP_ONE_CYCLE
RIGHT_EDGE, 1, 1, 0.10
*OUTPUT, HISTORY, FREQUENCY=1
*NODE OUTPUT, NSET=RIGHT_EDGE
U1, RF1
*END STEP
*STEP, NAME=CYCLE_0303, NLGEOM=NO, INC=160
*STATIC
0.005, 1.0, 1.0E-08, 0.025
*BOUNDARY, AMPLITUDE=AMP_ONE_CYCLE
RIGHT_EDGE, 1, 1, 0.10
*OUTPUT, HISTORY, FREQUENCY=1
*NODE OUTPUT, NSET=RIGHT_EDGE
U1, RF1
*END STEP
*STEP, NAME=CYCLE_0304, NLGEOM=NO, INC=160
*STATIC
0.005, 1.0, 1.0E-08, 0.025
*BOUNDARY, AMPLITUDE=AMP_ONE_CYCLE
RIGHT_EDGE, 1, 1, 0.10
*OUTPUT, HISTORY, FREQUENCY=1
*NODE OUTPUT, NSET=RIGHT_EDGE
U1, RF1
*END STEP
*STEP, NAME=CYCLE_0305, NLGEOM=NO, INC=160
*STATIC
0.005, 1.0, 1.0E-08, 0.025
*BOUNDARY, AMPLITUDE=AMP_ONE_CYCLE
RIGHT_EDGE, 1, 1, 0.10
*OUTPUT, HISTORY, FREQUENCY=1
*NODE OUTPUT, NSET=RIGHT_EDGE
U1, RF1
*END STEP
*STEP, NAME=CYCLE_0306, NLGEOM=NO, INC=160
*STATIC
0.005, 1.0, 1.0E-08, 0.025
*BOUNDARY, AMPLITUDE=AMP_ONE_CYCLE
RIGHT_EDGE, 1, 1, 0.10
*OUTPUT, HISTORY, FREQUENCY=1
*NODE OUTPUT, NSET=RIGHT_EDGE
U1, RF1
*END STEP
*STEP, NAME=CYCLE_0307, NLGEOM=NO, INC=160
*STATIC
0.005, 1.0, 1.0E-08, 0.025
*BOUNDARY, AMPLITUDE=AMP_ONE_CYCLE
RIGHT_EDGE, 1, 1, 0.10
*OUTPUT, HISTORY, FREQUENCY=1
*NODE OUTPUT, NSET=RIGHT_EDGE
U1, RF1
*END STEP
*STEP, NAME=CYCLE_0308, NLGEOM=NO, INC=160
*STATIC
0.005, 1.0, 1.0E-08, 0.025
*BOUNDARY, AMPLITUDE=AMP_ONE_CYCLE
RIGHT_EDGE, 1, 1, 0.10
*OUTPUT, HISTORY, FREQUENCY=1
*NODE OUTPUT, NSET=RIGHT_EDGE
U1, RF1
*END STEP
*STEP, NAME=CYCLE_0309, NLGEOM=NO, INC=160
*STATIC
0.005, 1.0, 1.0E-08, 0.025
*BOUNDARY, AMPLITUDE=AMP_ONE_CYCLE
RIGHT_EDGE, 1, 1, 0.10
*OUTPUT, HISTORY, FREQUENCY=1
*NODE OUTPUT, NSET=RIGHT_EDGE
U1, RF1
*END STEP
*STEP, NAME=CYCLE_0310, NLGEOM=NO, INC=160
*STATIC
0.005, 1.0, 1.0E-08, 0.025
*BOUNDARY, AMPLITUDE=AMP_ONE_CYCLE
RIGHT_EDGE, 1, 1, 0.10
*OUTPUT, HISTORY, FREQUENCY=1
*NODE OUTPUT, NSET=RIGHT_EDGE
U1, RF1
*END STEP
*STEP, NAME=CYCLE_0311, NLGEOM=NO, INC=160
*STATIC
0.005, 1.0, 1.0E-08, 0.025
*BOUNDARY, AMPLITUDE=AMP_ONE_CYCLE
RIGHT_EDGE, 1, 1, 0.10
*OUTPUT, HISTORY, FREQUENCY=1
*NODE OUTPUT, NSET=RIGHT_EDGE
U1, RF1
*END STEP
*STEP, NAME=CYCLE_0312, NLGEOM=NO, INC=160
*STATIC
0.005, 1.0, 1.0E-08, 0.025
*BOUNDARY, AMPLITUDE=AMP_ONE_CYCLE
RIGHT_EDGE, 1, 1, 0.10
*OUTPUT, HISTORY, FREQUENCY=1
*NODE OUTPUT, NSET=RIGHT_EDGE
U1, RF1
*END STEP
*STEP, NAME=CYCLE_0313, NLGEOM=NO, INC=160
*STATIC
0.005, 1.0, 1.0E-08, 0.025
*BOUNDARY, AMPLITUDE=AMP_ONE_CYCLE
RIGHT_EDGE, 1, 1, 0.10
*OUTPUT, HISTORY, FREQUENCY=1
*NODE OUTPUT, NSET=RIGHT_EDGE
U1, RF1
*END STEP
*STEP, NAME=CYCLE_0314, NLGEOM=NO, INC=160
*STATIC
0.005, 1.0, 1.0E-08, 0.025
*BOUNDARY, AMPLITUDE=AMP_ONE_CYCLE
RIGHT_EDGE, 1, 1, 0.10
*OUTPUT, HISTORY, FREQUENCY=1
*NODE OUTPUT, NSET=RIGHT_EDGE
U1, RF1
*END STEP
*STEP, NAME=CYCLE_0315, NLGEOM=NO, INC=160
*STATIC
0.005, 1.0, 1.0E-08, 0.025
*BOUNDARY, AMPLITUDE=AMP_ONE_CYCLE
RIGHT_EDGE, 1, 1, 0.10
*OUTPUT, HISTORY, FREQUENCY=1
*NODE OUTPUT, NSET=RIGHT_EDGE
U1, RF1
*END STEP
*STEP, NAME=CYCLE_0316, NLGEOM=NO, INC=160
*STATIC
0.005, 1.0, 1.0E-08, 0.025
*BOUNDARY, AMPLITUDE=AMP_ONE_CYCLE
RIGHT_EDGE, 1, 1, 0.10
*OUTPUT, HISTORY, FREQUENCY=1
*NODE OUTPUT, NSET=RIGHT_EDGE
U1, RF1
*END STEP
*STEP, NAME=CYCLE_0317, NLGEOM=NO, INC=160
*STATIC
0.005, 1.0, 1.0E-08, 0.025
*BOUNDARY, AMPLITUDE=AMP_ONE_CYCLE
RIGHT_EDGE, 1, 1, 0.10
*OUTPUT, HISTORY, FREQUENCY=1
*NODE OUTPUT, NSET=RIGHT_EDGE
U1, RF1
*END STEP
*STEP, NAME=CYCLE_0318, NLGEOM=NO, INC=160
*STATIC
0.005, 1.0, 1.0E-08, 0.025
*BOUNDARY, AMPLITUDE=AMP_ONE_CYCLE
RIGHT_EDGE, 1, 1, 0.10
*OUTPUT, HISTORY, FREQUENCY=1
*NODE OUTPUT, NSET=RIGHT_EDGE
U1, RF1
*END STEP
*STEP, NAME=CYCLE_0319, NLGEOM=NO, INC=160
*STATIC
0.005, 1.0, 1.0E-08, 0.025
*BOUNDARY, AMPLITUDE=AMP_ONE_CYCLE
RIGHT_EDGE, 1, 1, 0.10
*OUTPUT, HISTORY, FREQUENCY=1
*NODE OUTPUT, NSET=RIGHT_EDGE
U1, RF1
*END STEP
*STEP, NAME=CYCLE_0320, NLGEOM=NO, INC=160
*STATIC
0.005, 1.0, 1.0E-08, 0.025
*BOUNDARY, AMPLITUDE=AMP_ONE_CYCLE
RIGHT_EDGE, 1, 1, 0.10
*OUTPUT, HISTORY, FREQUENCY=1
*NODE OUTPUT, NSET=RIGHT_EDGE
U1, RF1
*END STEP
*STEP, NAME=CYCLE_0321, NLGEOM=NO, INC=160
*STATIC
0.005, 1.0, 1.0E-08, 0.025
*BOUNDARY, AMPLITUDE=AMP_ONE_CYCLE
RIGHT_EDGE, 1, 1, 0.10
*OUTPUT, HISTORY, FREQUENCY=1
*NODE OUTPUT, NSET=RIGHT_EDGE
U1, RF1
*END STEP
*STEP, NAME=CYCLE_0322, NLGEOM=NO, INC=160
*STATIC
0.005, 1.0, 1.0E-08, 0.025
*BOUNDARY, AMPLITUDE=AMP_ONE_CYCLE
RIGHT_EDGE, 1, 1, 0.10
*OUTPUT, HISTORY, FREQUENCY=1
*NODE OUTPUT, NSET=RIGHT_EDGE
U1, RF1
*END STEP
*STEP, NAME=CYCLE_0323, NLGEOM=NO, INC=160
*STATIC
0.005, 1.0, 1.0E-08, 0.025
*BOUNDARY, AMPLITUDE=AMP_ONE_CYCLE
RIGHT_EDGE, 1, 1, 0.10
*OUTPUT, HISTORY, FREQUENCY=1
*NODE OUTPUT, NSET=RIGHT_EDGE
U1, RF1
*END STEP
*STEP, NAME=CYCLE_0324, NLGEOM=NO, INC=160
*STATIC
0.005, 1.0, 1.0E-08, 0.025
*BOUNDARY, AMPLITUDE=AMP_ONE_CYCLE
RIGHT_EDGE, 1, 1, 0.10
*OUTPUT, HISTORY, FREQUENCY=1
*NODE OUTPUT, NSET=RIGHT_EDGE
U1, RF1
*END STEP
*STEP, NAME=CYCLE_0325, NLGEOM=NO, INC=160
*STATIC
0.005, 1.0, 1.0E-08, 0.025
*BOUNDARY, AMPLITUDE=AMP_ONE_CYCLE
RIGHT_EDGE, 1, 1, 0.10
*OUTPUT, HISTORY, FREQUENCY=1
*NODE OUTPUT, NSET=RIGHT_EDGE
U1, RF1
*END STEP
*STEP, NAME=CYCLE_0326, NLGEOM=NO, INC=160
*STATIC
0.005, 1.0, 1.0E-08, 0.025
*BOUNDARY, AMPLITUDE=AMP_ONE_CYCLE
RIGHT_EDGE, 1, 1, 0.10
*OUTPUT, HISTORY, FREQUENCY=1
*NODE OUTPUT, NSET=RIGHT_EDGE
U1, RF1
*END STEP
*STEP, NAME=CYCLE_0327, NLGEOM=NO, INC=160
*STATIC
0.005, 1.0, 1.0E-08, 0.025
*BOUNDARY, AMPLITUDE=AMP_ONE_CYCLE
RIGHT_EDGE, 1, 1, 0.10
*OUTPUT, HISTORY, FREQUENCY=1
*NODE OUTPUT, NSET=RIGHT_EDGE
U1, RF1
*END STEP
*STEP, NAME=CYCLE_0328, NLGEOM=NO, INC=160
*STATIC
0.005, 1.0, 1.0E-08, 0.025
*BOUNDARY, AMPLITUDE=AMP_ONE_CYCLE
RIGHT_EDGE, 1, 1, 0.10
*OUTPUT, HISTORY, FREQUENCY=1
*NODE OUTPUT, NSET=RIGHT_EDGE
U1, RF1
*END STEP
*STEP, NAME=CYCLE_0329, NLGEOM=NO, INC=160
*STATIC
0.005, 1.0, 1.0E-08, 0.025
*BOUNDARY, AMPLITUDE=AMP_ONE_CYCLE
RIGHT_EDGE, 1, 1, 0.10
*OUTPUT, HISTORY, FREQUENCY=1
*NODE OUTPUT, NSET=RIGHT_EDGE
U1, RF1
*END STEP
*STEP, NAME=CYCLE_0330, NLGEOM=NO, INC=160
*STATIC
0.005, 1.0, 1.0E-08, 0.025
*BOUNDARY, AMPLITUDE=AMP_ONE_CYCLE
RIGHT_EDGE, 1, 1, 0.10
*OUTPUT, HISTORY, FREQUENCY=1
*NODE OUTPUT, NSET=RIGHT_EDGE
U1, RF1
*END STEP
*STEP, NAME=CYCLE_0331, NLGEOM=NO, INC=160
*STATIC
0.005, 1.0, 1.0E-08, 0.025
*BOUNDARY, AMPLITUDE=AMP_ONE_CYCLE
RIGHT_EDGE, 1, 1, 0.10
*OUTPUT, HISTORY, FREQUENCY=1
*NODE OUTPUT, NSET=RIGHT_EDGE
U1, RF1
*END STEP
*STEP, NAME=CYCLE_0332, NLGEOM=NO, INC=160
*STATIC
0.005, 1.0, 1.0E-08, 0.025
*BOUNDARY, AMPLITUDE=AMP_ONE_CYCLE
RIGHT_EDGE, 1, 1, 0.10
*OUTPUT, HISTORY, FREQUENCY=1
*NODE OUTPUT, NSET=RIGHT_EDGE
U1, RF1
*END STEP
*STEP, NAME=CYCLE_0333, NLGEOM=NO, INC=160
*STATIC
0.005, 1.0, 1.0E-08, 0.025
*BOUNDARY, AMPLITUDE=AMP_ONE_CYCLE
RIGHT_EDGE, 1, 1, 0.10
*OUTPUT, HISTORY, FREQUENCY=1
*NODE OUTPUT, NSET=RIGHT_EDGE
U1, RF1
*END STEP
*STEP, NAME=CYCLE_0334, NLGEOM=NO, INC=160
*STATIC
0.005, 1.0, 1.0E-08, 0.025
*BOUNDARY, AMPLITUDE=AMP_ONE_CYCLE
RIGHT_EDGE, 1, 1, 0.10
*OUTPUT, HISTORY, FREQUENCY=1
*NODE OUTPUT, NSET=RIGHT_EDGE
U1, RF1
*END STEP
*STEP, NAME=CYCLE_0335, NLGEOM=NO, INC=160
*STATIC
0.005, 1.0, 1.0E-08, 0.025
*BOUNDARY, AMPLITUDE=AMP_ONE_CYCLE
RIGHT_EDGE, 1, 1, 0.10
*OUTPUT, HISTORY, FREQUENCY=1
*NODE OUTPUT, NSET=RIGHT_EDGE
U1, RF1
*END STEP
*STEP, NAME=CYCLE_0336, NLGEOM=NO, INC=160
*STATIC
0.005, 1.0, 1.0E-08, 0.025
*BOUNDARY, AMPLITUDE=AMP_ONE_CYCLE
RIGHT_EDGE, 1, 1, 0.10
*OUTPUT, HISTORY, FREQUENCY=1
*NODE OUTPUT, NSET=RIGHT_EDGE
U1, RF1
*END STEP
*STEP, NAME=CYCLE_0337, NLGEOM=NO, INC=160
*STATIC
0.005, 1.0, 1.0E-08, 0.025
*BOUNDARY, AMPLITUDE=AMP_ONE_CYCLE
RIGHT_EDGE, 1, 1, 0.10
*OUTPUT, HISTORY, FREQUENCY=1
*NODE OUTPUT, NSET=RIGHT_EDGE
U1, RF1
*END STEP
*STEP, NAME=CYCLE_0338, NLGEOM=NO, INC=160
*STATIC
0.005, 1.0, 1.0E-08, 0.025
*BOUNDARY, AMPLITUDE=AMP_ONE_CYCLE
RIGHT_EDGE, 1, 1, 0.10
*OUTPUT, HISTORY, FREQUENCY=1
*NODE OUTPUT, NSET=RIGHT_EDGE
U1, RF1
*END STEP
*STEP, NAME=CYCLE_0339, NLGEOM=NO, INC=160
*STATIC
0.005, 1.0, 1.0E-08, 0.025
*BOUNDARY, AMPLITUDE=AMP_ONE_CYCLE
RIGHT_EDGE, 1, 1, 0.10
*OUTPUT, HISTORY, FREQUENCY=1
*NODE OUTPUT, NSET=RIGHT_EDGE
U1, RF1
*END STEP
*STEP, NAME=CYCLE_0340, NLGEOM=NO, INC=160
*STATIC
0.005, 1.0, 1.0E-08, 0.025
*BOUNDARY, AMPLITUDE=AMP_ONE_CYCLE
RIGHT_EDGE, 1, 1, 0.10
*OUTPUT, HISTORY, FREQUENCY=1
*NODE OUTPUT, NSET=RIGHT_EDGE
U1, RF1
*END STEP
*STEP, NAME=CYCLE_0341, NLGEOM=NO, INC=160
*STATIC
0.005, 1.0, 1.0E-08, 0.025
*BOUNDARY, AMPLITUDE=AMP_ONE_CYCLE
RIGHT_EDGE, 1, 1, 0.10
*OUTPUT, HISTORY, FREQUENCY=1
*NODE OUTPUT, NSET=RIGHT_EDGE
U1, RF1
*END STEP
*STEP, NAME=CYCLE_0342, NLGEOM=NO, INC=160
*STATIC
0.005, 1.0, 1.0E-08, 0.025
*BOUNDARY, AMPLITUDE=AMP_ONE_CYCLE
RIGHT_EDGE, 1, 1, 0.10
*OUTPUT, HISTORY, FREQUENCY=1
*NODE OUTPUT, NSET=RIGHT_EDGE
U1, RF1
*END STEP
*STEP, NAME=CYCLE_0343, NLGEOM=NO, INC=160
*STATIC
0.005, 1.0, 1.0E-08, 0.025
*BOUNDARY, AMPLITUDE=AMP_ONE_CYCLE
RIGHT_EDGE, 1, 1, 0.10
*OUTPUT, HISTORY, FREQUENCY=1
*NODE OUTPUT, NSET=RIGHT_EDGE
U1, RF1
*END STEP
*STEP, NAME=CYCLE_0344, NLGEOM=NO, INC=160
*STATIC
0.005, 1.0, 1.0E-08, 0.025
*BOUNDARY, AMPLITUDE=AMP_ONE_CYCLE
RIGHT_EDGE, 1, 1, 0.10
*OUTPUT, HISTORY, FREQUENCY=1
*NODE OUTPUT, NSET=RIGHT_EDGE
U1, RF1
*END STEP
*STEP, NAME=CYCLE_0345, NLGEOM=NO, INC=160
*STATIC
0.005, 1.0, 1.0E-08, 0.025
*BOUNDARY, AMPLITUDE=AMP_ONE_CYCLE
RIGHT_EDGE, 1, 1, 0.10
*OUTPUT, HISTORY, FREQUENCY=1
*NODE OUTPUT, NSET=RIGHT_EDGE
U1, RF1
*END STEP
*STEP, NAME=CYCLE_0346, NLGEOM=NO, INC=160
*STATIC
0.005, 1.0, 1.0E-08, 0.025
*BOUNDARY, AMPLITUDE=AMP_ONE_CYCLE
RIGHT_EDGE, 1, 1, 0.10
*OUTPUT, HISTORY, FREQUENCY=1
*NODE OUTPUT, NSET=RIGHT_EDGE
U1, RF1
*END STEP
*STEP, NAME=CYCLE_0347, NLGEOM=NO, INC=160
*STATIC
0.005, 1.0, 1.0E-08, 0.025
*BOUNDARY, AMPLITUDE=AMP_ONE_CYCLE
RIGHT_EDGE, 1, 1, 0.10
*OUTPUT, HISTORY, FREQUENCY=1
*NODE OUTPUT, NSET=RIGHT_EDGE
U1, RF1
*END STEP
*STEP, NAME=CYCLE_0348, NLGEOM=NO, INC=160
*STATIC
0.005, 1.0, 1.0E-08, 0.025
*BOUNDARY, AMPLITUDE=AMP_ONE_CYCLE
RIGHT_EDGE, 1, 1, 0.10
*OUTPUT, HISTORY, FREQUENCY=1
*NODE OUTPUT, NSET=RIGHT_EDGE
U1, RF1
*END STEP
*STEP, NAME=CYCLE_0349, NLGEOM=NO, INC=160
*STATIC
0.005, 1.0, 1.0E-08, 0.025
*BOUNDARY, AMPLITUDE=AMP_ONE_CYCLE
RIGHT_EDGE, 1, 1, 0.10
*OUTPUT, HISTORY, FREQUENCY=1
*NODE OUTPUT, NSET=RIGHT_EDGE
U1, RF1
*END STEP
*STEP, NAME=CYCLE_0350, NLGEOM=NO, INC=160
*STATIC
0.005, 1.0, 1.0E-08, 0.025
*BOUNDARY, AMPLITUDE=AMP_ONE_CYCLE
RIGHT_EDGE, 1, 1, 0.10
*OUTPUT, HISTORY, FREQUENCY=1
*NODE OUTPUT, NSET=RIGHT_EDGE
U1, RF1
*END STEP
*STEP, NAME=CYCLE_0351, NLGEOM=NO, INC=160
*STATIC
0.005, 1.0, 1.0E-08, 0.025
*BOUNDARY, AMPLITUDE=AMP_ONE_CYCLE
RIGHT_EDGE, 1, 1, 0.10
*OUTPUT, HISTORY, FREQUENCY=1
*NODE OUTPUT, NSET=RIGHT_EDGE
U1, RF1
*END STEP
*STEP, NAME=CYCLE_0352, NLGEOM=NO, INC=160
*STATIC
0.005, 1.0, 1.0E-08, 0.025
*BOUNDARY, AMPLITUDE=AMP_ONE_CYCLE
RIGHT_EDGE, 1, 1, 0.10
*OUTPUT, HISTORY, FREQUENCY=1
*NODE OUTPUT, NSET=RIGHT_EDGE
U1, RF1
*END STEP
*STEP, NAME=CYCLE_0353, NLGEOM=NO, INC=160
*STATIC
0.005, 1.0, 1.0E-08, 0.025
*BOUNDARY, AMPLITUDE=AMP_ONE_CYCLE
RIGHT_EDGE, 1, 1, 0.10
*OUTPUT, HISTORY, FREQUENCY=1
*NODE OUTPUT, NSET=RIGHT_EDGE
U1, RF1
*END STEP
*STEP, NAME=CYCLE_0354, NLGEOM=NO, INC=160
*STATIC
0.005, 1.0, 1.0E-08, 0.025
*BOUNDARY, AMPLITUDE=AMP_ONE_CYCLE
RIGHT_EDGE, 1, 1, 0.10
*OUTPUT, HISTORY, FREQUENCY=1
*NODE OUTPUT, NSET=RIGHT_EDGE
U1, RF1
*END STEP
*STEP, NAME=CYCLE_0355, NLGEOM=NO, INC=160
*STATIC
0.005, 1.0, 1.0E-08, 0.025
*BOUNDARY, AMPLITUDE=AMP_ONE_CYCLE
RIGHT_EDGE, 1, 1, 0.10
*OUTPUT, HISTORY, FREQUENCY=1
*NODE OUTPUT, NSET=RIGHT_EDGE
U1, RF1
*END STEP
*STEP, NAME=CYCLE_0356, NLGEOM=NO, INC=160
*STATIC
0.005, 1.0, 1.0E-08, 0.025
*BOUNDARY, AMPLITUDE=AMP_ONE_CYCLE
RIGHT_EDGE, 1, 1, 0.10
*OUTPUT, HISTORY, FREQUENCY=1
*NODE OUTPUT, NSET=RIGHT_EDGE
U1, RF1
*END STEP
*STEP, NAME=CYCLE_0357, NLGEOM=NO, INC=160
*STATIC
0.005, 1.0, 1.0E-08, 0.025
*BOUNDARY, AMPLITUDE=AMP_ONE_CYCLE
RIGHT_EDGE, 1, 1, 0.10
*OUTPUT, HISTORY, FREQUENCY=1
*NODE OUTPUT, NSET=RIGHT_EDGE
U1, RF1
*END STEP
*STEP, NAME=CYCLE_0358, NLGEOM=NO, INC=160
*STATIC
0.005, 1.0, 1.0E-08, 0.025
*BOUNDARY, AMPLITUDE=AMP_ONE_CYCLE
RIGHT_EDGE, 1, 1, 0.10
*OUTPUT, HISTORY, FREQUENCY=1
*NODE OUTPUT, NSET=RIGHT_EDGE
U1, RF1
*END STEP
*STEP, NAME=CYCLE_0359, NLGEOM=NO, INC=160
*STATIC
0.005, 1.0, 1.0E-08, 0.025
*BOUNDARY, AMPLITUDE=AMP_ONE_CYCLE
RIGHT_EDGE, 1, 1, 0.10
*OUTPUT, HISTORY, FREQUENCY=1
*NODE OUTPUT, NSET=RIGHT_EDGE
U1, RF1
*END STEP
*STEP, NAME=CYCLE_0360, NLGEOM=NO, INC=160
*STATIC
0.005, 1.0, 1.0E-08, 0.025
*BOUNDARY, AMPLITUDE=AMP_ONE_CYCLE
RIGHT_EDGE, 1, 1, 0.10
*OUTPUT, HISTORY, FREQUENCY=1
*NODE OUTPUT, NSET=RIGHT_EDGE
U1, RF1
*END STEP
*STEP, NAME=CYCLE_0361, NLGEOM=NO, INC=160
*STATIC
0.005, 1.0, 1.0E-08, 0.025
*BOUNDARY, AMPLITUDE=AMP_ONE_CYCLE
RIGHT_EDGE, 1, 1, 0.10
*OUTPUT, HISTORY, FREQUENCY=1
*NODE OUTPUT, NSET=RIGHT_EDGE
U1, RF1
*END STEP
*STEP, NAME=CYCLE_0362, NLGEOM=NO, INC=160
*STATIC
0.005, 1.0, 1.0E-08, 0.025
*BOUNDARY, AMPLITUDE=AMP_ONE_CYCLE
RIGHT_EDGE, 1, 1, 0.10
*OUTPUT, HISTORY, FREQUENCY=1
*NODE OUTPUT, NSET=RIGHT_EDGE
U1, RF1
*END STEP
*STEP, NAME=CYCLE_0363, NLGEOM=NO, INC=160
*STATIC
0.005, 1.0, 1.0E-08, 0.025
*BOUNDARY, AMPLITUDE=AMP_ONE_CYCLE
RIGHT_EDGE, 1, 1, 0.10
*OUTPUT, HISTORY, FREQUENCY=1
*NODE OUTPUT, NSET=RIGHT_EDGE
U1, RF1
*END STEP
*STEP, NAME=CYCLE_0364, NLGEOM=NO, INC=160
*STATIC
0.005, 1.0, 1.0E-08, 0.025
*BOUNDARY, AMPLITUDE=AMP_ONE_CYCLE
RIGHT_EDGE, 1, 1, 0.10
*OUTPUT, HISTORY, FREQUENCY=1
*NODE OUTPUT, NSET=RIGHT_EDGE
U1, RF1
*END STEP
*STEP, NAME=CYCLE_0365, NLGEOM=NO, INC=160
*STATIC
0.005, 1.0, 1.0E-08, 0.025
*BOUNDARY, AMPLITUDE=AMP_ONE_CYCLE
RIGHT_EDGE, 1, 1, 0.10
*OUTPUT, HISTORY, FREQUENCY=1
*NODE OUTPUT, NSET=RIGHT_EDGE
U1, RF1
*END STEP
*STEP, NAME=CYCLE_0366, NLGEOM=NO, INC=160
*STATIC
0.005, 1.0, 1.0E-08, 0.025
*BOUNDARY, AMPLITUDE=AMP_ONE_CYCLE
RIGHT_EDGE, 1, 1, 0.10
*OUTPUT, HISTORY, FREQUENCY=1
*NODE OUTPUT, NSET=RIGHT_EDGE
U1, RF1
*END STEP
*STEP, NAME=CYCLE_0367, NLGEOM=NO, INC=160
*STATIC
0.005, 1.0, 1.0E-08, 0.025
*BOUNDARY, AMPLITUDE=AMP_ONE_CYCLE
RIGHT_EDGE, 1, 1, 0.10
*OUTPUT, HISTORY, FREQUENCY=1
*NODE OUTPUT, NSET=RIGHT_EDGE
U1, RF1
*END STEP
*STEP, NAME=CYCLE_0368, NLGEOM=NO, INC=160
*STATIC
0.005, 1.0, 1.0E-08, 0.025
*BOUNDARY, AMPLITUDE=AMP_ONE_CYCLE
RIGHT_EDGE, 1, 1, 0.10
*OUTPUT, HISTORY, FREQUENCY=1
*NODE OUTPUT, NSET=RIGHT_EDGE
U1, RF1
*END STEP
*STEP, NAME=CYCLE_0369, NLGEOM=NO, INC=160
*STATIC
0.005, 1.0, 1.0E-08, 0.025
*BOUNDARY, AMPLITUDE=AMP_ONE_CYCLE
RIGHT_EDGE, 1, 1, 0.10
*OUTPUT, HISTORY, FREQUENCY=1
*NODE OUTPUT, NSET=RIGHT_EDGE
U1, RF1
*END STEP
*STEP, NAME=CYCLE_0370, NLGEOM=NO, INC=160
*STATIC
0.005, 1.0, 1.0E-08, 0.025
*BOUNDARY, AMPLITUDE=AMP_ONE_CYCLE
RIGHT_EDGE, 1, 1, 0.10
*OUTPUT, HISTORY, FREQUENCY=1
*NODE OUTPUT, NSET=RIGHT_EDGE
U1, RF1
*END STEP
*STEP, NAME=CYCLE_0371, NLGEOM=NO, INC=160
*STATIC
0.005, 1.0, 1.0E-08, 0.025
*BOUNDARY, AMPLITUDE=AMP_ONE_CYCLE
RIGHT_EDGE, 1, 1, 0.10
*OUTPUT, HISTORY, FREQUENCY=1
*NODE OUTPUT, NSET=RIGHT_EDGE
U1, RF1
*END STEP
*STEP, NAME=CYCLE_0372, NLGEOM=NO, INC=160
*STATIC
0.005, 1.0, 1.0E-08, 0.025
*BOUNDARY, AMPLITUDE=AMP_ONE_CYCLE
RIGHT_EDGE, 1, 1, 0.10
*OUTPUT, HISTORY, FREQUENCY=1
*NODE OUTPUT, NSET=RIGHT_EDGE
U1, RF1
*END STEP
*STEP, NAME=CYCLE_0373, NLGEOM=NO, INC=160
*STATIC
0.005, 1.0, 1.0E-08, 0.025
*BOUNDARY, AMPLITUDE=AMP_ONE_CYCLE
RIGHT_EDGE, 1, 1, 0.10
*OUTPUT, HISTORY, FREQUENCY=1
*NODE OUTPUT, NSET=RIGHT_EDGE
U1, RF1
*END STEP
*STEP, NAME=CYCLE_0374, NLGEOM=NO, INC=160
*STATIC
0.005, 1.0, 1.0E-08, 0.025
*BOUNDARY, AMPLITUDE=AMP_ONE_CYCLE
RIGHT_EDGE, 1, 1, 0.10
*OUTPUT, HISTORY, FREQUENCY=1
*NODE OUTPUT, NSET=RIGHT_EDGE
U1, RF1
*END STEP
*STEP, NAME=CYCLE_0375, NLGEOM=NO, INC=160
*STATIC
0.005, 1.0, 1.0E-08, 0.025
*BOUNDARY, AMPLITUDE=AMP_ONE_CYCLE
RIGHT_EDGE, 1, 1, 0.10
*OUTPUT, HISTORY, FREQUENCY=1
*NODE OUTPUT, NSET=RIGHT_EDGE
U1, RF1
*END STEP
*STEP, NAME=CYCLE_0376, NLGEOM=NO, INC=160
*STATIC
0.005, 1.0, 1.0E-08, 0.025
*BOUNDARY, AMPLITUDE=AMP_ONE_CYCLE
RIGHT_EDGE, 1, 1, 0.10
*OUTPUT, HISTORY, FREQUENCY=1
*NODE OUTPUT, NSET=RIGHT_EDGE
U1, RF1
*END STEP
*STEP, NAME=CYCLE_0377, NLGEOM=NO, INC=160
*STATIC
0.005, 1.0, 1.0E-08, 0.025
*BOUNDARY, AMPLITUDE=AMP_ONE_CYCLE
RIGHT_EDGE, 1, 1, 0.10
*OUTPUT, HISTORY, FREQUENCY=1
*NODE OUTPUT, NSET=RIGHT_EDGE
U1, RF1
*END STEP
*STEP, NAME=CYCLE_0378, NLGEOM=NO, INC=160
*STATIC
0.005, 1.0, 1.0E-08, 0.025
*BOUNDARY, AMPLITUDE=AMP_ONE_CYCLE
RIGHT_EDGE, 1, 1, 0.10
*OUTPUT, HISTORY, FREQUENCY=1
*NODE OUTPUT, NSET=RIGHT_EDGE
U1, RF1
*END STEP
*STEP, NAME=CYCLE_0379, NLGEOM=NO, INC=160
*STATIC
0.005, 1.0, 1.0E-08, 0.025
*BOUNDARY, AMPLITUDE=AMP_ONE_CYCLE
RIGHT_EDGE, 1, 1, 0.10
*OUTPUT, HISTORY, FREQUENCY=1
*NODE OUTPUT, NSET=RIGHT_EDGE
U1, RF1
*END STEP
*STEP, NAME=CYCLE_0380, NLGEOM=NO, INC=160
*STATIC
0.005, 1.0, 1.0E-08, 0.025
*BOUNDARY, AMPLITUDE=AMP_ONE_CYCLE
RIGHT_EDGE, 1, 1, 0.10
*OUTPUT, HISTORY, FREQUENCY=1
*NODE OUTPUT, NSET=RIGHT_EDGE
U1, RF1
*END STEP
*STEP, NAME=CYCLE_0381, NLGEOM=NO, INC=160
*STATIC
0.005, 1.0, 1.0E-08, 0.025
*BOUNDARY, AMPLITUDE=AMP_ONE_CYCLE
RIGHT_EDGE, 1, 1, 0.10
*OUTPUT, HISTORY, FREQUENCY=1
*NODE OUTPUT, NSET=RIGHT_EDGE
U1, RF1
*END STEP
*STEP, NAME=CYCLE_0382, NLGEOM=NO, INC=160
*STATIC
0.005, 1.0, 1.0E-08, 0.025
*BOUNDARY, AMPLITUDE=AMP_ONE_CYCLE
RIGHT_EDGE, 1, 1, 0.10
*OUTPUT, HISTORY, FREQUENCY=1
*NODE OUTPUT, NSET=RIGHT_EDGE
U1, RF1
*END STEP
*STEP, NAME=CYCLE_0383, NLGEOM=NO, INC=160
*STATIC
0.005, 1.0, 1.0E-08, 0.025
*BOUNDARY, AMPLITUDE=AMP_ONE_CYCLE
RIGHT_EDGE, 1, 1, 0.10
*OUTPUT, HISTORY, FREQUENCY=1
*NODE OUTPUT, NSET=RIGHT_EDGE
U1, RF1
*END STEP
*STEP, NAME=CYCLE_0384, NLGEOM=NO, INC=160
*STATIC
0.005, 1.0, 1.0E-08, 0.025
*BOUNDARY, AMPLITUDE=AMP_ONE_CYCLE
RIGHT_EDGE, 1, 1, 0.10
*OUTPUT, HISTORY, FREQUENCY=1
*NODE OUTPUT, NSET=RIGHT_EDGE
U1, RF1
*END STEP
*STEP, NAME=CYCLE_0385, NLGEOM=NO, INC=160
*STATIC
0.005, 1.0, 1.0E-08, 0.025
*BOUNDARY, AMPLITUDE=AMP_ONE_CYCLE
RIGHT_EDGE, 1, 1, 0.10
*OUTPUT, HISTORY, FREQUENCY=1
*NODE OUTPUT, NSET=RIGHT_EDGE
U1, RF1
*END STEP
*STEP, NAME=CYCLE_0386, NLGEOM=NO, INC=160
*STATIC
0.005, 1.0, 1.0E-08, 0.025
*BOUNDARY, AMPLITUDE=AMP_ONE_CYCLE
RIGHT_EDGE, 1, 1, 0.10
*OUTPUT, HISTORY, FREQUENCY=1
*NODE OUTPUT, NSET=RIGHT_EDGE
U1, RF1
*END STEP
*STEP, NAME=CYCLE_0387, NLGEOM=NO, INC=160
*STATIC
0.005, 1.0, 1.0E-08, 0.025
*BOUNDARY, AMPLITUDE=AMP_ONE_CYCLE
RIGHT_EDGE, 1, 1, 0.10
*OUTPUT, HISTORY, FREQUENCY=1
*NODE OUTPUT, NSET=RIGHT_EDGE
U1, RF1
*END STEP
*STEP, NAME=CYCLE_0388, NLGEOM=NO, INC=160
*STATIC
0.005, 1.0, 1.0E-08, 0.025
*BOUNDARY, AMPLITUDE=AMP_ONE_CYCLE
RIGHT_EDGE, 1, 1, 0.10
*OUTPUT, HISTORY, FREQUENCY=1
*NODE OUTPUT, NSET=RIGHT_EDGE
U1, RF1
*END STEP
*STEP, NAME=CYCLE_0389, NLGEOM=NO, INC=160
*STATIC
0.005, 1.0, 1.0E-08, 0.025
*BOUNDARY, AMPLITUDE=AMP_ONE_CYCLE
RIGHT_EDGE, 1, 1, 0.10
*OUTPUT, HISTORY, FREQUENCY=1
*NODE OUTPUT, NSET=RIGHT_EDGE
U1, RF1
*END STEP
*STEP, NAME=CYCLE_0390, NLGEOM=NO, INC=160
*STATIC
0.005, 1.0, 1.0E-08, 0.025
*BOUNDARY, AMPLITUDE=AMP_ONE_CYCLE
RIGHT_EDGE, 1, 1, 0.10
*OUTPUT, HISTORY, FREQUENCY=1
*NODE OUTPUT, NSET=RIGHT_EDGE
U1, RF1
*END STEP
*STEP, NAME=CYCLE_0391, NLGEOM=NO, INC=160
*STATIC
0.005, 1.0, 1.0E-08, 0.025
*BOUNDARY, AMPLITUDE=AMP_ONE_CYCLE
RIGHT_EDGE, 1, 1, 0.10
*OUTPUT, HISTORY, FREQUENCY=1
*NODE OUTPUT, NSET=RIGHT_EDGE
U1, RF1
*END STEP
*STEP, NAME=CYCLE_0392, NLGEOM=NO, INC=160
*STATIC
0.005, 1.0, 1.0E-08, 0.025
*BOUNDARY, AMPLITUDE=AMP_ONE_CYCLE
RIGHT_EDGE, 1, 1, 0.10
*OUTPUT, HISTORY, FREQUENCY=1
*NODE OUTPUT, NSET=RIGHT_EDGE
U1, RF1
*END STEP
*STEP, NAME=CYCLE_0393, NLGEOM=NO, INC=160
*STATIC
0.005, 1.0, 1.0E-08, 0.025
*BOUNDARY, AMPLITUDE=AMP_ONE_CYCLE
RIGHT_EDGE, 1, 1, 0.10
*OUTPUT, HISTORY, FREQUENCY=1
*NODE OUTPUT, NSET=RIGHT_EDGE
U1, RF1
*END STEP
*STEP, NAME=CYCLE_0394, NLGEOM=NO, INC=160
*STATIC
0.005, 1.0, 1.0E-08, 0.025
*BOUNDARY, AMPLITUDE=AMP_ONE_CYCLE
RIGHT_EDGE, 1, 1, 0.10
*OUTPUT, HISTORY, FREQUENCY=1
*NODE OUTPUT, NSET=RIGHT_EDGE
U1, RF1
*END STEP
*STEP, NAME=CYCLE_0395, NLGEOM=NO, INC=160
*STATIC
0.005, 1.0, 1.0E-08, 0.025
*BOUNDARY, AMPLITUDE=AMP_ONE_CYCLE
RIGHT_EDGE, 1, 1, 0.10
*OUTPUT, HISTORY, FREQUENCY=1
*NODE OUTPUT, NSET=RIGHT_EDGE
U1, RF1
*END STEP
*STEP, NAME=CYCLE_0396, NLGEOM=NO, INC=160
*STATIC
0.005, 1.0, 1.0E-08, 0.025
*BOUNDARY, AMPLITUDE=AMP_ONE_CYCLE
RIGHT_EDGE, 1, 1, 0.10
*OUTPUT, HISTORY, FREQUENCY=1
*NODE OUTPUT, NSET=RIGHT_EDGE
U1, RF1
*END STEP
*STEP, NAME=CYCLE_0397, NLGEOM=NO, INC=160
*STATIC
0.005, 1.0, 1.0E-08, 0.025
*BOUNDARY, AMPLITUDE=AMP_ONE_CYCLE
RIGHT_EDGE, 1, 1, 0.10
*OUTPUT, HISTORY, FREQUENCY=1
*NODE OUTPUT, NSET=RIGHT_EDGE
U1, RF1
*END STEP
*STEP, NAME=CYCLE_0398, NLGEOM=NO, INC=160
*STATIC
0.005, 1.0, 1.0E-08, 0.025
*BOUNDARY, AMPLITUDE=AMP_ONE_CYCLE
RIGHT_EDGE, 1, 1, 0.10
*OUTPUT, HISTORY, FREQUENCY=1
*NODE OUTPUT, NSET=RIGHT_EDGE
U1, RF1
*END STEP
*STEP, NAME=CYCLE_0399, NLGEOM=NO, INC=160
*STATIC
0.005, 1.0, 1.0E-08, 0.025
*BOUNDARY, AMPLITUDE=AMP_ONE_CYCLE
RIGHT_EDGE, 1, 1, 0.10
*OUTPUT, HISTORY, FREQUENCY=1
*NODE OUTPUT, NSET=RIGHT_EDGE
U1, RF1
*END STEP
*STEP, NAME=CYCLE_0400, NLGEOM=NO, INC=160
*STATIC
0.005, 1.0, 1.0E-08, 0.025
*BOUNDARY, AMPLITUDE=AMP_ONE_CYCLE
RIGHT_EDGE, 1, 1, 0.10
*OUTPUT, HISTORY, FREQUENCY=1
*NODE OUTPUT, NSET=RIGHT_EDGE
U1, RF1
*END STEP
*STEP, NAME=CYCLE_0401, NLGEOM=NO, INC=160
*STATIC
0.005, 1.0, 1.0E-08, 0.025
*BOUNDARY, AMPLITUDE=AMP_ONE_CYCLE
RIGHT_EDGE, 1, 1, 0.10
*OUTPUT, HISTORY, FREQUENCY=1
*NODE OUTPUT, NSET=RIGHT_EDGE
U1, RF1
*END STEP
*STEP, NAME=CYCLE_0402, NLGEOM=NO, INC=160
*STATIC
0.005, 1.0, 1.0E-08, 0.025
*BOUNDARY, AMPLITUDE=AMP_ONE_CYCLE
RIGHT_EDGE, 1, 1, 0.10
*OUTPUT, HISTORY, FREQUENCY=1
*NODE OUTPUT, NSET=RIGHT_EDGE
U1, RF1
*END STEP
*STEP, NAME=CYCLE_0403, NLGEOM=NO, INC=160
*STATIC
0.005, 1.0, 1.0E-08, 0.025
*BOUNDARY, AMPLITUDE=AMP_ONE_CYCLE
RIGHT_EDGE, 1, 1, 0.10
*OUTPUT, HISTORY, FREQUENCY=1
*NODE OUTPUT, NSET=RIGHT_EDGE
U1, RF1
*END STEP
*STEP, NAME=CYCLE_0404, NLGEOM=NO, INC=160
*STATIC
0.005, 1.0, 1.0E-08, 0.025
*BOUNDARY, AMPLITUDE=AMP_ONE_CYCLE
RIGHT_EDGE, 1, 1, 0.10
*OUTPUT, HISTORY, FREQUENCY=1
*NODE OUTPUT, NSET=RIGHT_EDGE
U1, RF1
*END STEP
*STEP, NAME=CYCLE_0405, NLGEOM=NO, INC=160
*STATIC
0.005, 1.0, 1.0E-08, 0.025
*BOUNDARY, AMPLITUDE=AMP_ONE_CYCLE
RIGHT_EDGE, 1, 1, 0.10
*OUTPUT, HISTORY, FREQUENCY=1
*NODE OUTPUT, NSET=RIGHT_EDGE
U1, RF1
*END STEP
*STEP, NAME=CYCLE_0406, NLGEOM=NO, INC=160
*STATIC
0.005, 1.0, 1.0E-08, 0.025
*BOUNDARY, AMPLITUDE=AMP_ONE_CYCLE
RIGHT_EDGE, 1, 1, 0.10
*OUTPUT, HISTORY, FREQUENCY=1
*NODE OUTPUT, NSET=RIGHT_EDGE
U1, RF1
*END STEP
*STEP, NAME=CYCLE_0407, NLGEOM=NO, INC=160
*STATIC
0.005, 1.0, 1.0E-08, 0.025
*BOUNDARY, AMPLITUDE=AMP_ONE_CYCLE
RIGHT_EDGE, 1, 1, 0.10
*OUTPUT, HISTORY, FREQUENCY=1
*NODE OUTPUT, NSET=RIGHT_EDGE
U1, RF1
*END STEP
*STEP, NAME=CYCLE_0408, NLGEOM=NO, INC=160
*STATIC
0.005, 1.0, 1.0E-08, 0.025
*BOUNDARY, AMPLITUDE=AMP_ONE_CYCLE
RIGHT_EDGE, 1, 1, 0.10
*OUTPUT, HISTORY, FREQUENCY=1
*NODE OUTPUT, NSET=RIGHT_EDGE
U1, RF1
*END STEP
*STEP, NAME=CYCLE_0409, NLGEOM=NO, INC=160
*STATIC
0.005, 1.0, 1.0E-08, 0.025
*BOUNDARY, AMPLITUDE=AMP_ONE_CYCLE
RIGHT_EDGE, 1, 1, 0.10
*OUTPUT, HISTORY, FREQUENCY=1
*NODE OUTPUT, NSET=RIGHT_EDGE
U1, RF1
*END STEP
*STEP, NAME=CYCLE_0410, NLGEOM=NO, INC=160
*STATIC
0.005, 1.0, 1.0E-08, 0.025
*BOUNDARY, AMPLITUDE=AMP_ONE_CYCLE
RIGHT_EDGE, 1, 1, 0.10
*OUTPUT, HISTORY, FREQUENCY=1
*NODE OUTPUT, NSET=RIGHT_EDGE
U1, RF1
*END STEP
*STEP, NAME=CYCLE_0411, NLGEOM=NO, INC=160
*STATIC
0.005, 1.0, 1.0E-08, 0.025
*BOUNDARY, AMPLITUDE=AMP_ONE_CYCLE
RIGHT_EDGE, 1, 1, 0.10
*OUTPUT, HISTORY, FREQUENCY=1
*NODE OUTPUT, NSET=RIGHT_EDGE
U1, RF1
*END STEP
*STEP, NAME=CYCLE_0412, NLGEOM=NO, INC=160
*STATIC
0.005, 1.0, 1.0E-08, 0.025
*BOUNDARY, AMPLITUDE=AMP_ONE_CYCLE
RIGHT_EDGE, 1, 1, 0.10
*OUTPUT, HISTORY, FREQUENCY=1
*NODE OUTPUT, NSET=RIGHT_EDGE
U1, RF1
*END STEP
*STEP, NAME=CYCLE_0413, NLGEOM=NO, INC=160
*STATIC
0.005, 1.0, 1.0E-08, 0.025
*BOUNDARY, AMPLITUDE=AMP_ONE_CYCLE
RIGHT_EDGE, 1, 1, 0.10
*OUTPUT, HISTORY, FREQUENCY=1
*NODE OUTPUT, NSET=RIGHT_EDGE
U1, RF1
*END STEP
*STEP, NAME=CYCLE_0414, NLGEOM=NO, INC=160
*STATIC
0.005, 1.0, 1.0E-08, 0.025
*BOUNDARY, AMPLITUDE=AMP_ONE_CYCLE
RIGHT_EDGE, 1, 1, 0.10
*OUTPUT, HISTORY, FREQUENCY=1
*NODE OUTPUT, NSET=RIGHT_EDGE
U1, RF1
*END STEP
*STEP, NAME=CYCLE_0415, NLGEOM=NO, INC=160
*STATIC
0.005, 1.0, 1.0E-08, 0.025
*BOUNDARY, AMPLITUDE=AMP_ONE_CYCLE
RIGHT_EDGE, 1, 1, 0.10
*OUTPUT, HISTORY, FREQUENCY=1
*NODE OUTPUT, NSET=RIGHT_EDGE
U1, RF1
*END STEP
*STEP, NAME=CYCLE_0416, NLGEOM=NO, INC=160
*STATIC
0.005, 1.0, 1.0E-08, 0.025
*BOUNDARY, AMPLITUDE=AMP_ONE_CYCLE
RIGHT_EDGE, 1, 1, 0.10
*OUTPUT, HISTORY, FREQUENCY=1
*NODE OUTPUT, NSET=RIGHT_EDGE
U1, RF1
*END STEP
*STEP, NAME=CYCLE_0417, NLGEOM=NO, INC=160
*STATIC
0.005, 1.0, 1.0E-08, 0.025
*BOUNDARY, AMPLITUDE=AMP_ONE_CYCLE
RIGHT_EDGE, 1, 1, 0.10
*OUTPUT, HISTORY, FREQUENCY=1
*NODE OUTPUT, NSET=RIGHT_EDGE
U1, RF1
*END STEP
*STEP, NAME=CYCLE_0418, NLGEOM=NO, INC=160
*STATIC
0.005, 1.0, 1.0E-08, 0.025
*BOUNDARY, AMPLITUDE=AMP_ONE_CYCLE
RIGHT_EDGE, 1, 1, 0.10
*OUTPUT, HISTORY, FREQUENCY=1
*NODE OUTPUT, NSET=RIGHT_EDGE
U1, RF1
*END STEP
*STEP, NAME=CYCLE_0419, NLGEOM=NO, INC=160
*STATIC
0.005, 1.0, 1.0E-08, 0.025
*BOUNDARY, AMPLITUDE=AMP_ONE_CYCLE
RIGHT_EDGE, 1, 1, 0.10
*OUTPUT, HISTORY, FREQUENCY=1
*NODE OUTPUT, NSET=RIGHT_EDGE
U1, RF1
*END STEP
*STEP, NAME=CYCLE_0420, NLGEOM=NO, INC=160
*STATIC
0.005, 1.0, 1.0E-08, 0.025
*BOUNDARY, AMPLITUDE=AMP_ONE_CYCLE
RIGHT_EDGE, 1, 1, 0.10
*OUTPUT, HISTORY, FREQUENCY=1
*NODE OUTPUT, NSET=RIGHT_EDGE
U1, RF1
*END STEP
*STEP, NAME=CYCLE_0421, NLGEOM=NO, INC=160
*STATIC
0.005, 1.0, 1.0E-08, 0.025
*BOUNDARY, AMPLITUDE=AMP_ONE_CYCLE
RIGHT_EDGE, 1, 1, 0.10
*OUTPUT, HISTORY, FREQUENCY=1
*NODE OUTPUT, NSET=RIGHT_EDGE
U1, RF1
*END STEP
*STEP, NAME=CYCLE_0422, NLGEOM=NO, INC=160
*STATIC
0.005, 1.0, 1.0E-08, 0.025
*BOUNDARY, AMPLITUDE=AMP_ONE_CYCLE
RIGHT_EDGE, 1, 1, 0.10
*OUTPUT, HISTORY, FREQUENCY=1
*NODE OUTPUT, NSET=RIGHT_EDGE
U1, RF1
*END STEP
*STEP, NAME=CYCLE_0423, NLGEOM=NO, INC=160
*STATIC
0.005, 1.0, 1.0E-08, 0.025
*BOUNDARY, AMPLITUDE=AMP_ONE_CYCLE
RIGHT_EDGE, 1, 1, 0.10
*OUTPUT, HISTORY, FREQUENCY=1
*NODE OUTPUT, NSET=RIGHT_EDGE
U1, RF1
*END STEP
*STEP, NAME=CYCLE_0424, NLGEOM=NO, INC=160
*STATIC
0.005, 1.0, 1.0E-08, 0.025
*BOUNDARY, AMPLITUDE=AMP_ONE_CYCLE
RIGHT_EDGE, 1, 1, 0.10
*OUTPUT, HISTORY, FREQUENCY=1
*NODE OUTPUT, NSET=RIGHT_EDGE
U1, RF1
*END STEP
*STEP, NAME=CYCLE_0425, NLGEOM=NO, INC=160
*STATIC
0.005, 1.0, 1.0E-08, 0.025
*BOUNDARY, AMPLITUDE=AMP_ONE_CYCLE
RIGHT_EDGE, 1, 1, 0.10
*OUTPUT, HISTORY, FREQUENCY=1
*NODE OUTPUT, NSET=RIGHT_EDGE
U1, RF1
*END STEP
*STEP, NAME=CYCLE_0426, NLGEOM=NO, INC=160
*STATIC
0.005, 1.0, 1.0E-08, 0.025
*BOUNDARY, AMPLITUDE=AMP_ONE_CYCLE
RIGHT_EDGE, 1, 1, 0.10
*OUTPUT, HISTORY, FREQUENCY=1
*NODE OUTPUT, NSET=RIGHT_EDGE
U1, RF1
*END STEP
*STEP, NAME=CYCLE_0427, NLGEOM=NO, INC=160
*STATIC
0.005, 1.0, 1.0E-08, 0.025
*BOUNDARY, AMPLITUDE=AMP_ONE_CYCLE
RIGHT_EDGE, 1, 1, 0.10
*OUTPUT, HISTORY, FREQUENCY=1
*NODE OUTPUT, NSET=RIGHT_EDGE
U1, RF1
*END STEP
*STEP, NAME=CYCLE_0428, NLGEOM=NO, INC=160
*STATIC
0.005, 1.0, 1.0E-08, 0.025
*BOUNDARY, AMPLITUDE=AMP_ONE_CYCLE
RIGHT_EDGE, 1, 1, 0.10
*OUTPUT, HISTORY, FREQUENCY=1
*NODE OUTPUT, NSET=RIGHT_EDGE
U1, RF1
*END STEP
*STEP, NAME=CYCLE_0429, NLGEOM=NO, INC=160
*STATIC
0.005, 1.0, 1.0E-08, 0.025
*BOUNDARY, AMPLITUDE=AMP_ONE_CYCLE
RIGHT_EDGE, 1, 1, 0.10
*OUTPUT, HISTORY, FREQUENCY=1
*NODE OUTPUT, NSET=RIGHT_EDGE
U1, RF1
*END STEP
*STEP, NAME=CYCLE_0430, NLGEOM=NO, INC=160
*STATIC
0.005, 1.0, 1.0E-08, 0.025
*BOUNDARY, AMPLITUDE=AMP_ONE_CYCLE
RIGHT_EDGE, 1, 1, 0.10
*OUTPUT, HISTORY, FREQUENCY=1
*NODE OUTPUT, NSET=RIGHT_EDGE
U1, RF1
*END STEP
*STEP, NAME=CYCLE_0431, NLGEOM=NO, INC=160
*STATIC
0.005, 1.0, 1.0E-08, 0.025
*BOUNDARY, AMPLITUDE=AMP_ONE_CYCLE
RIGHT_EDGE, 1, 1, 0.10
*OUTPUT, HISTORY, FREQUENCY=1
*NODE OUTPUT, NSET=RIGHT_EDGE
U1, RF1
*END STEP
*STEP, NAME=CYCLE_0432, NLGEOM=NO, INC=160
*STATIC
0.005, 1.0, 1.0E-08, 0.025
*BOUNDARY, AMPLITUDE=AMP_ONE_CYCLE
RIGHT_EDGE, 1, 1, 0.10
*OUTPUT, HISTORY, FREQUENCY=1
*NODE OUTPUT, NSET=RIGHT_EDGE
U1, RF1
*END STEP
*STEP, NAME=CYCLE_0433, NLGEOM=NO, INC=160
*STATIC
0.005, 1.0, 1.0E-08, 0.025
*BOUNDARY, AMPLITUDE=AMP_ONE_CYCLE
RIGHT_EDGE, 1, 1, 0.10
*OUTPUT, HISTORY, FREQUENCY=1
*NODE OUTPUT, NSET=RIGHT_EDGE
U1, RF1
*END STEP
*STEP, NAME=CYCLE_0434, NLGEOM=NO, INC=160
*STATIC
0.005, 1.0, 1.0E-08, 0.025
*BOUNDARY, AMPLITUDE=AMP_ONE_CYCLE
RIGHT_EDGE, 1, 1, 0.10
*OUTPUT, HISTORY, FREQUENCY=1
*NODE OUTPUT, NSET=RIGHT_EDGE
U1, RF1
*END STEP
*STEP, NAME=CYCLE_0435, NLGEOM=NO, INC=160
*STATIC
0.005, 1.0, 1.0E-08, 0.025
*BOUNDARY, AMPLITUDE=AMP_ONE_CYCLE
RIGHT_EDGE, 1, 1, 0.10
*OUTPUT, HISTORY, FREQUENCY=1
*NODE OUTPUT, NSET=RIGHT_EDGE
U1, RF1
*END STEP
*STEP, NAME=CYCLE_0436, NLGEOM=NO, INC=160
*STATIC
0.005, 1.0, 1.0E-08, 0.025
*BOUNDARY, AMPLITUDE=AMP_ONE_CYCLE
RIGHT_EDGE, 1, 1, 0.10
*OUTPUT, HISTORY, FREQUENCY=1
*NODE OUTPUT, NSET=RIGHT_EDGE
U1, RF1
*END STEP
*STEP, NAME=CYCLE_0437, NLGEOM=NO, INC=160
*STATIC
0.005, 1.0, 1.0E-08, 0.025
*BOUNDARY, AMPLITUDE=AMP_ONE_CYCLE
RIGHT_EDGE, 1, 1, 0.10
*OUTPUT, HISTORY, FREQUENCY=1
*NODE OUTPUT, NSET=RIGHT_EDGE
U1, RF1
*END STEP
*STEP, NAME=CYCLE_0438, NLGEOM=NO, INC=160
*STATIC
0.005, 1.0, 1.0E-08, 0.025
*BOUNDARY, AMPLITUDE=AMP_ONE_CYCLE
RIGHT_EDGE, 1, 1, 0.10
*OUTPUT, HISTORY, FREQUENCY=1
*NODE OUTPUT, NSET=RIGHT_EDGE
U1, RF1
*END STEP
*STEP, NAME=CYCLE_0439, NLGEOM=NO, INC=160
*STATIC
0.005, 1.0, 1.0E-08, 0.025
*BOUNDARY, AMPLITUDE=AMP_ONE_CYCLE
RIGHT_EDGE, 1, 1, 0.10
*OUTPUT, HISTORY, FREQUENCY=1
*NODE OUTPUT, NSET=RIGHT_EDGE
U1, RF1
*END STEP
*STEP, NAME=CYCLE_0440, NLGEOM=NO, INC=160
*STATIC
0.005, 1.0, 1.0E-08, 0.025
*BOUNDARY, AMPLITUDE=AMP_ONE_CYCLE
RIGHT_EDGE, 1, 1, 0.10
*OUTPUT, HISTORY, FREQUENCY=1
*NODE OUTPUT, NSET=RIGHT_EDGE
U1, RF1
*END STEP
*STEP, NAME=CYCLE_0441, NLGEOM=NO, INC=160
*STATIC
0.005, 1.0, 1.0E-08, 0.025
*BOUNDARY, AMPLITUDE=AMP_ONE_CYCLE
RIGHT_EDGE, 1, 1, 0.10
*OUTPUT, HISTORY, FREQUENCY=1
*NODE OUTPUT, NSET=RIGHT_EDGE
U1, RF1
*END STEP
*STEP, NAME=CYCLE_0442, NLGEOM=NO, INC=160
*STATIC
0.005, 1.0, 1.0E-08, 0.025
*BOUNDARY, AMPLITUDE=AMP_ONE_CYCLE
RIGHT_EDGE, 1, 1, 0.10
*OUTPUT, HISTORY, FREQUENCY=1
*NODE OUTPUT, NSET=RIGHT_EDGE
U1, RF1
*END STEP
*STEP, NAME=CYCLE_0443, NLGEOM=NO, INC=160
*STATIC
0.005, 1.0, 1.0E-08, 0.025
*BOUNDARY, AMPLITUDE=AMP_ONE_CYCLE
RIGHT_EDGE, 1, 1, 0.10
*OUTPUT, HISTORY, FREQUENCY=1
*NODE OUTPUT, NSET=RIGHT_EDGE
U1, RF1
*END STEP
*STEP, NAME=CYCLE_0444, NLGEOM=NO, INC=160
*STATIC
0.005, 1.0, 1.0E-08, 0.025
*BOUNDARY, AMPLITUDE=AMP_ONE_CYCLE
RIGHT_EDGE, 1, 1, 0.10
*OUTPUT, HISTORY, FREQUENCY=1
*NODE OUTPUT, NSET=RIGHT_EDGE
U1, RF1
*END STEP
*STEP, NAME=CYCLE_0445, NLGEOM=NO, INC=160
*STATIC
0.005, 1.0, 1.0E-08, 0.025
*BOUNDARY, AMPLITUDE=AMP_ONE_CYCLE
RIGHT_EDGE, 1, 1, 0.10
*OUTPUT, HISTORY, FREQUENCY=1
*NODE OUTPUT, NSET=RIGHT_EDGE
U1, RF1
*END STEP
*STEP, NAME=CYCLE_0446, NLGEOM=NO, INC=160
*STATIC
0.005, 1.0, 1.0E-08, 0.025
*BOUNDARY, AMPLITUDE=AMP_ONE_CYCLE
RIGHT_EDGE, 1, 1, 0.10
*OUTPUT, HISTORY, FREQUENCY=1
*NODE OUTPUT, NSET=RIGHT_EDGE
U1, RF1
*END STEP
*STEP, NAME=CYCLE_0447, NLGEOM=NO, INC=160
*STATIC
0.005, 1.0, 1.0E-08, 0.025
*BOUNDARY, AMPLITUDE=AMP_ONE_CYCLE
RIGHT_EDGE, 1, 1, 0.10
*OUTPUT, HISTORY, FREQUENCY=1
*NODE OUTPUT, NSET=RIGHT_EDGE
U1, RF1
*END STEP
*STEP, NAME=CYCLE_0448, NLGEOM=NO, INC=160
*STATIC
0.005, 1.0, 1.0E-08, 0.025
*BOUNDARY, AMPLITUDE=AMP_ONE_CYCLE
RIGHT_EDGE, 1, 1, 0.10
*OUTPUT, HISTORY, FREQUENCY=1
*NODE OUTPUT, NSET=RIGHT_EDGE
U1, RF1
*END STEP
*STEP, NAME=CYCLE_0449, NLGEOM=NO, INC=160
*STATIC
0.005, 1.0, 1.0E-08, 0.025
*BOUNDARY, AMPLITUDE=AMP_ONE_CYCLE
RIGHT_EDGE, 1, 1, 0.10
*OUTPUT, HISTORY, FREQUENCY=1
*NODE OUTPUT, NSET=RIGHT_EDGE
U1, RF1
*END STEP
*STEP, NAME=CYCLE_0450, NLGEOM=NO, INC=160
*STATIC
0.005, 1.0, 1.0E-08, 0.025
*BOUNDARY, AMPLITUDE=AMP_ONE_CYCLE
RIGHT_EDGE, 1, 1, 0.10
*OUTPUT, HISTORY, FREQUENCY=1
*NODE OUTPUT, NSET=RIGHT_EDGE
U1, RF1
*END STEP
*STEP, NAME=CYCLE_0451, NLGEOM=NO, INC=160
*STATIC
0.005, 1.0, 1.0E-08, 0.025
*BOUNDARY, AMPLITUDE=AMP_ONE_CYCLE
RIGHT_EDGE, 1, 1, 0.10
*OUTPUT, HISTORY, FREQUENCY=1
*NODE OUTPUT, NSET=RIGHT_EDGE
U1, RF1
*END STEP
*STEP, NAME=CYCLE_0452, NLGEOM=NO, INC=160
*STATIC
0.005, 1.0, 1.0E-08, 0.025
*BOUNDARY, AMPLITUDE=AMP_ONE_CYCLE
RIGHT_EDGE, 1, 1, 0.10
*OUTPUT, HISTORY, FREQUENCY=1
*NODE OUTPUT, NSET=RIGHT_EDGE
U1, RF1
*END STEP
*STEP, NAME=CYCLE_0453, NLGEOM=NO, INC=160
*STATIC
0.005, 1.0, 1.0E-08, 0.025
*BOUNDARY, AMPLITUDE=AMP_ONE_CYCLE
RIGHT_EDGE, 1, 1, 0.10
*OUTPUT, HISTORY, FREQUENCY=1
*NODE OUTPUT, NSET=RIGHT_EDGE
U1, RF1
*END STEP
*STEP, NAME=CYCLE_0454, NLGEOM=NO, INC=160
*STATIC
0.005, 1.0, 1.0E-08, 0.025
*BOUNDARY, AMPLITUDE=AMP_ONE_CYCLE
RIGHT_EDGE, 1, 1, 0.10
*OUTPUT, HISTORY, FREQUENCY=1
*NODE OUTPUT, NSET=RIGHT_EDGE
U1, RF1
*END STEP
*STEP, NAME=CYCLE_0455, NLGEOM=NO, INC=160
*STATIC
0.005, 1.0, 1.0E-08, 0.025
*BOUNDARY, AMPLITUDE=AMP_ONE_CYCLE
RIGHT_EDGE, 1, 1, 0.10
*OUTPUT, HISTORY, FREQUENCY=1
*NODE OUTPUT, NSET=RIGHT_EDGE
U1, RF1
*END STEP
*STEP, NAME=CYCLE_0456, NLGEOM=NO, INC=160
*STATIC
0.005, 1.0, 1.0E-08, 0.025
*BOUNDARY, AMPLITUDE=AMP_ONE_CYCLE
RIGHT_EDGE, 1, 1, 0.10
*OUTPUT, HISTORY, FREQUENCY=1
*NODE OUTPUT, NSET=RIGHT_EDGE
U1, RF1
*END STEP
*STEP, NAME=CYCLE_0457, NLGEOM=NO, INC=160
*STATIC
0.005, 1.0, 1.0E-08, 0.025
*BOUNDARY, AMPLITUDE=AMP_ONE_CYCLE
RIGHT_EDGE, 1, 1, 0.10
*OUTPUT, HISTORY, FREQUENCY=1
*NODE OUTPUT, NSET=RIGHT_EDGE
U1, RF1
*END STEP
*STEP, NAME=CYCLE_0458, NLGEOM=NO, INC=160
*STATIC
0.005, 1.0, 1.0E-08, 0.025
*BOUNDARY, AMPLITUDE=AMP_ONE_CYCLE
RIGHT_EDGE, 1, 1, 0.10
*OUTPUT, HISTORY, FREQUENCY=1
*NODE OUTPUT, NSET=RIGHT_EDGE
U1, RF1
*END STEP
*STEP, NAME=CYCLE_0459, NLGEOM=NO, INC=160
*STATIC
0.005, 1.0, 1.0E-08, 0.025
*BOUNDARY, AMPLITUDE=AMP_ONE_CYCLE
RIGHT_EDGE, 1, 1, 0.10
*OUTPUT, HISTORY, FREQUENCY=1
*NODE OUTPUT, NSET=RIGHT_EDGE
U1, RF1
*END STEP
*STEP, NAME=CYCLE_0460, NLGEOM=NO, INC=160
*STATIC
0.005, 1.0, 1.0E-08, 0.025
*BOUNDARY, AMPLITUDE=AMP_ONE_CYCLE
RIGHT_EDGE, 1, 1, 0.10
*OUTPUT, HISTORY, FREQUENCY=1
*NODE OUTPUT, NSET=RIGHT_EDGE
U1, RF1
*END STEP
*STEP, NAME=CYCLE_0461, NLGEOM=NO, INC=160
*STATIC
0.005, 1.0, 1.0E-08, 0.025
*BOUNDARY, AMPLITUDE=AMP_ONE_CYCLE
RIGHT_EDGE, 1, 1, 0.10
*OUTPUT, HISTORY, FREQUENCY=1
*NODE OUTPUT, NSET=RIGHT_EDGE
U1, RF1
*END STEP
*STEP, NAME=CYCLE_0462, NLGEOM=NO, INC=160
*STATIC
0.005, 1.0, 1.0E-08, 0.025
*BOUNDARY, AMPLITUDE=AMP_ONE_CYCLE
RIGHT_EDGE, 1, 1, 0.10
*OUTPUT, HISTORY, FREQUENCY=1
*NODE OUTPUT, NSET=RIGHT_EDGE
U1, RF1
*END STEP
*STEP, NAME=CYCLE_0463, NLGEOM=NO, INC=160
*STATIC
0.005, 1.0, 1.0E-08, 0.025
*BOUNDARY, AMPLITUDE=AMP_ONE_CYCLE
RIGHT_EDGE, 1, 1, 0.10
*OUTPUT, HISTORY, FREQUENCY=1
*NODE OUTPUT, NSET=RIGHT_EDGE
U1, RF1
*END STEP
*STEP, NAME=CYCLE_0464, NLGEOM=NO, INC=160
*STATIC
0.005, 1.0, 1.0E-08, 0.025
*BOUNDARY, AMPLITUDE=AMP_ONE_CYCLE
RIGHT_EDGE, 1, 1, 0.10
*OUTPUT, HISTORY, FREQUENCY=1
*NODE OUTPUT, NSET=RIGHT_EDGE
U1, RF1
*END STEP
*STEP, NAME=CYCLE_0465, NLGEOM=NO, INC=160
*STATIC
0.005, 1.0, 1.0E-08, 0.025
*BOUNDARY, AMPLITUDE=AMP_ONE_CYCLE
RIGHT_EDGE, 1, 1, 0.10
*OUTPUT, HISTORY, FREQUENCY=1
*NODE OUTPUT, NSET=RIGHT_EDGE
U1, RF1
*END STEP
*STEP, NAME=CYCLE_0466, NLGEOM=NO, INC=160
*STATIC
0.005, 1.0, 1.0E-08, 0.025
*BOUNDARY, AMPLITUDE=AMP_ONE_CYCLE
RIGHT_EDGE, 1, 1, 0.10
*OUTPUT, HISTORY, FREQUENCY=1
*NODE OUTPUT, NSET=RIGHT_EDGE
U1, RF1
*END STEP
*STEP, NAME=CYCLE_0467, NLGEOM=NO, INC=160
*STATIC
0.005, 1.0, 1.0E-08, 0.025
*BOUNDARY, AMPLITUDE=AMP_ONE_CYCLE
RIGHT_EDGE, 1, 1, 0.10
*OUTPUT, HISTORY, FREQUENCY=1
*NODE OUTPUT, NSET=RIGHT_EDGE
U1, RF1
*END STEP
*STEP, NAME=CYCLE_0468, NLGEOM=NO, INC=160
*STATIC
0.005, 1.0, 1.0E-08, 0.025
*BOUNDARY, AMPLITUDE=AMP_ONE_CYCLE
RIGHT_EDGE, 1, 1, 0.10
*OUTPUT, HISTORY, FREQUENCY=1
*NODE OUTPUT, NSET=RIGHT_EDGE
U1, RF1
*END STEP
*STEP, NAME=CYCLE_0469, NLGEOM=NO, INC=160
*STATIC
0.005, 1.0, 1.0E-08, 0.025
*BOUNDARY, AMPLITUDE=AMP_ONE_CYCLE
RIGHT_EDGE, 1, 1, 0.10
*OUTPUT, HISTORY, FREQUENCY=1
*NODE OUTPUT, NSET=RIGHT_EDGE
U1, RF1
*END STEP
*STEP, NAME=CYCLE_0470, NLGEOM=NO, INC=160
*STATIC
0.005, 1.0, 1.0E-08, 0.025
*BOUNDARY, AMPLITUDE=AMP_ONE_CYCLE
RIGHT_EDGE, 1, 1, 0.10
*OUTPUT, HISTORY, FREQUENCY=1
*NODE OUTPUT, NSET=RIGHT_EDGE
U1, RF1
*END STEP
*STEP, NAME=CYCLE_0471, NLGEOM=NO, INC=160
*STATIC
0.005, 1.0, 1.0E-08, 0.025
*BOUNDARY, AMPLITUDE=AMP_ONE_CYCLE
RIGHT_EDGE, 1, 1, 0.10
*OUTPUT, HISTORY, FREQUENCY=1
*NODE OUTPUT, NSET=RIGHT_EDGE
U1, RF1
*END STEP
*STEP, NAME=CYCLE_0472, NLGEOM=NO, INC=160
*STATIC
0.005, 1.0, 1.0E-08, 0.025
*BOUNDARY, AMPLITUDE=AMP_ONE_CYCLE
RIGHT_EDGE, 1, 1, 0.10
*OUTPUT, HISTORY, FREQUENCY=1
*NODE OUTPUT, NSET=RIGHT_EDGE
U1, RF1
*END STEP
*STEP, NAME=CYCLE_0473, NLGEOM=NO, INC=160
*STATIC
0.005, 1.0, 1.0E-08, 0.025
*BOUNDARY, AMPLITUDE=AMP_ONE_CYCLE
RIGHT_EDGE, 1, 1, 0.10
*OUTPUT, HISTORY, FREQUENCY=1
*NODE OUTPUT, NSET=RIGHT_EDGE
U1, RF1
*END STEP
*STEP, NAME=CYCLE_0474, NLGEOM=NO, INC=160
*STATIC
0.005, 1.0, 1.0E-08, 0.025
*BOUNDARY, AMPLITUDE=AMP_ONE_CYCLE
RIGHT_EDGE, 1, 1, 0.10
*OUTPUT, HISTORY, FREQUENCY=1
*NODE OUTPUT, NSET=RIGHT_EDGE
U1, RF1
*END STEP
*STEP, NAME=CYCLE_0475, NLGEOM=NO, INC=160
*STATIC
0.005, 1.0, 1.0E-08, 0.025
*BOUNDARY, AMPLITUDE=AMP_ONE_CYCLE
RIGHT_EDGE, 1, 1, 0.10
*OUTPUT, HISTORY, FREQUENCY=1
*NODE OUTPUT, NSET=RIGHT_EDGE
U1, RF1
*END STEP
*STEP, NAME=CYCLE_0476, NLGEOM=NO, INC=160
*STATIC
0.005, 1.0, 1.0E-08, 0.025
*BOUNDARY, AMPLITUDE=AMP_ONE_CYCLE
RIGHT_EDGE, 1, 1, 0.10
*OUTPUT, HISTORY, FREQUENCY=1
*NODE OUTPUT, NSET=RIGHT_EDGE
U1, RF1
*END STEP
*STEP, NAME=CYCLE_0477, NLGEOM=NO, INC=160
*STATIC
0.005, 1.0, 1.0E-08, 0.025
*BOUNDARY, AMPLITUDE=AMP_ONE_CYCLE
RIGHT_EDGE, 1, 1, 0.10
*OUTPUT, HISTORY, FREQUENCY=1
*NODE OUTPUT, NSET=RIGHT_EDGE
U1, RF1
*END STEP
*STEP, NAME=CYCLE_0478, NLGEOM=NO, INC=160
*STATIC
0.005, 1.0, 1.0E-08, 0.025
*BOUNDARY, AMPLITUDE=AMP_ONE_CYCLE
RIGHT_EDGE, 1, 1, 0.10
*OUTPUT, HISTORY, FREQUENCY=1
*NODE OUTPUT, NSET=RIGHT_EDGE
U1, RF1
*END STEP
*STEP, NAME=CYCLE_0479, NLGEOM=NO, INC=160
*STATIC
0.005, 1.0, 1.0E-08, 0.025
*BOUNDARY, AMPLITUDE=AMP_ONE_CYCLE
RIGHT_EDGE, 1, 1, 0.10
*OUTPUT, HISTORY, FREQUENCY=1
*NODE OUTPUT, NSET=RIGHT_EDGE
U1, RF1
*END STEP
*STEP, NAME=CYCLE_0480, NLGEOM=NO, INC=160
*STATIC
0.005, 1.0, 1.0E-08, 0.025
*BOUNDARY, AMPLITUDE=AMP_ONE_CYCLE
RIGHT_EDGE, 1, 1, 0.10
*OUTPUT, HISTORY, FREQUENCY=1
*NODE OUTPUT, NSET=RIGHT_EDGE
U1, RF1
*END STEP
*STEP, NAME=CYCLE_0481, NLGEOM=NO, INC=160
*STATIC
0.005, 1.0, 1.0E-08, 0.025
*BOUNDARY, AMPLITUDE=AMP_ONE_CYCLE
RIGHT_EDGE, 1, 1, 0.10
*OUTPUT, HISTORY, FREQUENCY=1
*NODE OUTPUT, NSET=RIGHT_EDGE
U1, RF1
*END STEP
*STEP, NAME=CYCLE_0482, NLGEOM=NO, INC=160
*STATIC
0.005, 1.0, 1.0E-08, 0.025
*BOUNDARY, AMPLITUDE=AMP_ONE_CYCLE
RIGHT_EDGE, 1, 1, 0.10
*OUTPUT, HISTORY, FREQUENCY=1
*NODE OUTPUT, NSET=RIGHT_EDGE
U1, RF1
*END STEP
*STEP, NAME=CYCLE_0483, NLGEOM=NO, INC=160
*STATIC
0.005, 1.0, 1.0E-08, 0.025
*BOUNDARY, AMPLITUDE=AMP_ONE_CYCLE
RIGHT_EDGE, 1, 1, 0.10
*OUTPUT, HISTORY, FREQUENCY=1
*NODE OUTPUT, NSET=RIGHT_EDGE
U1, RF1
*END STEP
*STEP, NAME=CYCLE_0484, NLGEOM=NO, INC=160
*STATIC
0.005, 1.0, 1.0E-08, 0.025
*BOUNDARY, AMPLITUDE=AMP_ONE_CYCLE
RIGHT_EDGE, 1, 1, 0.10
*OUTPUT, HISTORY, FREQUENCY=1
*NODE OUTPUT, NSET=RIGHT_EDGE
U1, RF1
*END STEP
*STEP, NAME=CYCLE_0485, NLGEOM=NO, INC=160
*STATIC
0.005, 1.0, 1.0E-08, 0.025
*BOUNDARY, AMPLITUDE=AMP_ONE_CYCLE
RIGHT_EDGE, 1, 1, 0.10
*OUTPUT, HISTORY, FREQUENCY=1
*NODE OUTPUT, NSET=RIGHT_EDGE
U1, RF1
*END STEP
*STEP, NAME=CYCLE_0486, NLGEOM=NO, INC=160
*STATIC
0.005, 1.0, 1.0E-08, 0.025
*BOUNDARY, AMPLITUDE=AMP_ONE_CYCLE
RIGHT_EDGE, 1, 1, 0.10
*OUTPUT, HISTORY, FREQUENCY=1
*NODE OUTPUT, NSET=RIGHT_EDGE
U1, RF1
*END STEP
*STEP, NAME=CYCLE_0487, NLGEOM=NO, INC=160
*STATIC
0.005, 1.0, 1.0E-08, 0.025
*BOUNDARY, AMPLITUDE=AMP_ONE_CYCLE
RIGHT_EDGE, 1, 1, 0.10
*OUTPUT, HISTORY, FREQUENCY=1
*NODE OUTPUT, NSET=RIGHT_EDGE
U1, RF1
*END STEP
*STEP, NAME=CYCLE_0488, NLGEOM=NO, INC=160
*STATIC
0.005, 1.0, 1.0E-08, 0.025
*BOUNDARY, AMPLITUDE=AMP_ONE_CYCLE
RIGHT_EDGE, 1, 1, 0.10
*OUTPUT, HISTORY, FREQUENCY=1
*NODE OUTPUT, NSET=RIGHT_EDGE
U1, RF1
*END STEP
*STEP, NAME=CYCLE_0489, NLGEOM=NO, INC=160
*STATIC
0.005, 1.0, 1.0E-08, 0.025
*BOUNDARY, AMPLITUDE=AMP_ONE_CYCLE
RIGHT_EDGE, 1, 1, 0.10
*OUTPUT, HISTORY, FREQUENCY=1
*NODE OUTPUT, NSET=RIGHT_EDGE
U1, RF1
*END STEP
*STEP, NAME=CYCLE_0490, NLGEOM=NO, INC=160
*STATIC
0.005, 1.0, 1.0E-08, 0.025
*BOUNDARY, AMPLITUDE=AMP_ONE_CYCLE
RIGHT_EDGE, 1, 1, 0.10
*OUTPUT, HISTORY, FREQUENCY=1
*NODE OUTPUT, NSET=RIGHT_EDGE
U1, RF1
*END STEP
*STEP, NAME=CYCLE_0491, NLGEOM=NO, INC=160
*STATIC
0.005, 1.0, 1.0E-08, 0.025
*BOUNDARY, AMPLITUDE=AMP_ONE_CYCLE
RIGHT_EDGE, 1, 1, 0.10
*OUTPUT, HISTORY, FREQUENCY=1
*NODE OUTPUT, NSET=RIGHT_EDGE
U1, RF1
*END STEP
*STEP, NAME=CYCLE_0492, NLGEOM=NO, INC=160
*STATIC
0.005, 1.0, 1.0E-08, 0.025
*BOUNDARY, AMPLITUDE=AMP_ONE_CYCLE
RIGHT_EDGE, 1, 1, 0.10
*OUTPUT, HISTORY, FREQUENCY=1
*NODE OUTPUT, NSET=RIGHT_EDGE
U1, RF1
*END STEP
*STEP, NAME=CYCLE_0493, NLGEOM=NO, INC=160
*STATIC
0.005, 1.0, 1.0E-08, 0.025
*BOUNDARY, AMPLITUDE=AMP_ONE_CYCLE
RIGHT_EDGE, 1, 1, 0.10
*OUTPUT, HISTORY, FREQUENCY=1
*NODE OUTPUT, NSET=RIGHT_EDGE
U1, RF1
*END STEP
*STEP, NAME=CYCLE_0494, NLGEOM=NO, INC=160
*STATIC
0.005, 1.0, 1.0E-08, 0.025
*BOUNDARY, AMPLITUDE=AMP_ONE_CYCLE
RIGHT_EDGE, 1, 1, 0.10
*OUTPUT, HISTORY, FREQUENCY=1
*NODE OUTPUT, NSET=RIGHT_EDGE
U1, RF1
*END STEP
*STEP, NAME=CYCLE_0495, NLGEOM=NO, INC=160
*STATIC
0.005, 1.0, 1.0E-08, 0.025
*BOUNDARY, AMPLITUDE=AMP_ONE_CYCLE
RIGHT_EDGE, 1, 1, 0.10
*OUTPUT, HISTORY, FREQUENCY=1
*NODE OUTPUT, NSET=RIGHT_EDGE
U1, RF1
*END STEP
*STEP, NAME=CYCLE_0496, NLGEOM=NO, INC=160
*STATIC
0.005, 1.0, 1.0E-08, 0.025
*BOUNDARY, AMPLITUDE=AMP_ONE_CYCLE
RIGHT_EDGE, 1, 1, 0.10
*OUTPUT, HISTORY, FREQUENCY=1
*NODE OUTPUT, NSET=RIGHT_EDGE
U1, RF1
*END STEP
*STEP, NAME=CYCLE_0497, NLGEOM=NO, INC=160
*STATIC
0.005, 1.0, 1.0E-08, 0.025
*BOUNDARY, AMPLITUDE=AMP_ONE_CYCLE
RIGHT_EDGE, 1, 1, 0.10
*OUTPUT, HISTORY, FREQUENCY=1
*NODE OUTPUT, NSET=RIGHT_EDGE
U1, RF1
*END STEP
*STEP, NAME=CYCLE_0498, NLGEOM=NO, INC=160
*STATIC
0.005, 1.0, 1.0E-08, 0.025
*BOUNDARY, AMPLITUDE=AMP_ONE_CYCLE
RIGHT_EDGE, 1, 1, 0.10
*OUTPUT, HISTORY, FREQUENCY=1
*NODE OUTPUT, NSET=RIGHT_EDGE
U1, RF1
*END STEP
*STEP, NAME=CYCLE_0499, NLGEOM=NO, INC=160
*STATIC
0.005, 1.0, 1.0E-08, 0.025
*BOUNDARY, AMPLITUDE=AMP_ONE_CYCLE
RIGHT_EDGE, 1, 1, 0.10
*OUTPUT, HISTORY, FREQUENCY=1
*NODE OUTPUT, NSET=RIGHT_EDGE
U1, RF1
*END STEP
*STEP, NAME=CYCLE_0500, NLGEOM=NO, INC=160
*STATIC
0.005, 1.0, 1.0E-08, 0.025
*BOUNDARY, AMPLITUDE=AMP_ONE_CYCLE
RIGHT_EDGE, 1, 1, 0.10
*OUTPUT, HISTORY, FREQUENCY=1
*NODE OUTPUT, NSET=RIGHT_EDGE
U1, RF1
*OUTPUT, FIELD, NUMBER INTERVAL=4
*NODE OUTPUT
U, RF
*ELEMENT OUTPUT
S, SDV
*END STEP
