** Stage 16N-R1 500-cycle restart-enabled reference
** Structured C3D8 mesh with element-wise approximation of central circular hole
*HEADING
Stage 16N-R1 500-cycle restart-enabled reference
*PART, NAME=PLATE_HOLE
*NODE
1, 0, 0, 0
2, 0.25, 0, 0
3, 0.5, 0, 0
4, 0.75, 0, 0
5, 1, 0, 0
6, 1.25, 0, 0
7, 1.5, 0, 0
8, 1.75, 0, 0
9, 2, 0, 0
10, 2.25, 0, 0
11, 2.5, 0, 0
12, 2.75, 0, 0
13, 3, 0, 0
14, 3.25, 0, 0
15, 3.5, 0, 0
16, 3.75, 0, 0
17, 4, 0, 0
18, 4.25, 0, 0
19, 4.5, 0, 0
20, 4.75, 0, 0
21, 5, 0, 0
22, 5.25, 0, 0
23, 5.5, 0, 0
24, 5.75, 0, 0
25, 6, 0, 0
26, 6.25, 0, 0
27, 6.5, 0, 0
28, 6.75, 0, 0
29, 7, 0, 0
30, 7.25, 0, 0
31, 7.5, 0, 0
32, 7.75, 0, 0
33, 8, 0, 0
34, 8.25, 0, 0
35, 8.5, 0, 0
36, 8.75, 0, 0
37, 9, 0, 0
38, 9.25, 0, 0
39, 9.5, 0, 0
40, 9.75, 0, 0
41, 10, 0, 0
42, 10.25, 0, 0
43, 10.5, 0, 0
44, 10.75, 0, 0
45, 11, 0, 0
46, 11.25, 0, 0
47, 11.5, 0, 0
48, 11.75, 0, 0
49, 12, 0, 0
50, 12.25, 0, 0
51, 12.5, 0, 0
52, 12.75, 0, 0
53, 13, 0, 0
54, 13.25, 0, 0
55, 13.5, 0, 0
56, 13.75, 0, 0
57, 14, 0, 0
58, 14.25, 0, 0
59, 14.5, 0, 0
60, 14.75, 0, 0
61, 15, 0, 0
62, 15.25, 0, 0
63, 15.5, 0, 0
64, 15.75, 0, 0
65, 16, 0, 0
66, 16.25, 0, 0
67, 16.5, 0, 0
68, 16.75, 0, 0
69, 17, 0, 0
70, 17.25, 0, 0
71, 17.5, 0, 0
72, 17.75, 0, 0
73, 18, 0, 0
74, 18.25, 0, 0
75, 18.5, 0, 0
76, 18.75, 0, 0
77, 19, 0, 0
78, 19.25, 0, 0
79, 19.5, 0, 0
80, 19.75, 0, 0
81, 20, 0, 0
82, 0, 0.25, 0
83, 0.25, 0.25, 0
84, 0.5, 0.25, 0
85, 0.75, 0.25, 0
86, 1, 0.25, 0
87, 1.25, 0.25, 0
88, 1.5, 0.25, 0
89, 1.75, 0.25, 0
90, 2, 0.25, 0
91, 2.25, 0.25, 0
92, 2.5, 0.25, 0
93, 2.75, 0.25, 0
94, 3, 0.25, 0
95, 3.25, 0.25, 0
96, 3.5, 0.25, 0
97, 3.75, 0.25, 0
98, 4, 0.25, 0
99, 4.25, 0.25, 0
100, 4.5, 0.25, 0
101, 4.75, 0.25, 0
102, 5, 0.25, 0
103, 5.25, 0.25, 0
104, 5.5, 0.25, 0
105, 5.75, 0.25, 0
106, 6, 0.25, 0
107, 6.25, 0.25, 0
108, 6.5, 0.25, 0
109, 6.75, 0.25, 0
110, 7, 0.25, 0
111, 7.25, 0.25, 0
112, 7.5, 0.25, 0
113, 7.75, 0.25, 0
114, 8, 0.25, 0
115, 8.25, 0.25, 0
116, 8.5, 0.25, 0
117, 8.75, 0.25, 0
118, 9, 0.25, 0
119, 9.25, 0.25, 0
120, 9.5, 0.25, 0
121, 9.75, 0.25, 0
122, 10, 0.25, 0
123, 10.25, 0.25, 0
124, 10.5, 0.25, 0
125, 10.75, 0.25, 0
126, 11, 0.25, 0
127, 11.25, 0.25, 0
128, 11.5, 0.25, 0
129, 11.75, 0.25, 0
130, 12, 0.25, 0
131, 12.25, 0.25, 0
132, 12.5, 0.25, 0
133, 12.75, 0.25, 0
134, 13, 0.25, 0
135, 13.25, 0.25, 0
136, 13.5, 0.25, 0
137, 13.75, 0.25, 0
138, 14, 0.25, 0
139, 14.25, 0.25, 0
140, 14.5, 0.25, 0
141, 14.75, 0.25, 0
142, 15, 0.25, 0
143, 15.25, 0.25, 0
144, 15.5, 0.25, 0
145, 15.75, 0.25, 0
146, 16, 0.25, 0
147, 16.25, 0.25, 0
148, 16.5, 0.25, 0
149, 16.75, 0.25, 0
150, 17, 0.25, 0
151, 17.25, 0.25, 0
152, 17.5, 0.25, 0
153, 17.75, 0.25, 0
154, 18, 0.25, 0
155, 18.25, 0.25, 0
156, 18.5, 0.25, 0
157, 18.75, 0.25, 0
158, 19, 0.25, 0
159, 19.25, 0.25, 0
160, 19.5, 0.25, 0
161, 19.75, 0.25, 0
162, 20, 0.25, 0
163, 0, 0.5, 0
164, 0.25, 0.5, 0
165, 0.5, 0.5, 0
166, 0.75, 0.5, 0
167, 1, 0.5, 0
168, 1.25, 0.5, 0
169, 1.5, 0.5, 0
170, 1.75, 0.5, 0
171, 2, 0.5, 0
172, 2.25, 0.5, 0
173, 2.5, 0.5, 0
174, 2.75, 0.5, 0
175, 3, 0.5, 0
176, 3.25, 0.5, 0
177, 3.5, 0.5, 0
178, 3.75, 0.5, 0
179, 4, 0.5, 0
180, 4.25, 0.5, 0
181, 4.5, 0.5, 0
182, 4.75, 0.5, 0
183, 5, 0.5, 0
184, 5.25, 0.5, 0
185, 5.5, 0.5, 0
186, 5.75, 0.5, 0
187, 6, 0.5, 0
188, 6.25, 0.5, 0
189, 6.5, 0.5, 0
190, 6.75, 0.5, 0
191, 7, 0.5, 0
192, 7.25, 0.5, 0
193, 7.5, 0.5, 0
194, 7.75, 0.5, 0
195, 8, 0.5, 0
196, 8.25, 0.5, 0
197, 8.5, 0.5, 0
198, 8.75, 0.5, 0
199, 9, 0.5, 0
200, 9.25, 0.5, 0
201, 9.5, 0.5, 0
202, 9.75, 0.5, 0
203, 10, 0.5, 0
204, 10.25, 0.5, 0
205, 10.5, 0.5, 0
206, 10.75, 0.5, 0
207, 11, 0.5, 0
208, 11.25, 0.5, 0
209, 11.5, 0.5, 0
210, 11.75, 0.5, 0
211, 12, 0.5, 0
212, 12.25, 0.5, 0
213, 12.5, 0.5, 0
214, 12.75, 0.5, 0
215, 13, 0.5, 0
216, 13.25, 0.5, 0
217, 13.5, 0.5, 0
218, 13.75, 0.5, 0
219, 14, 0.5, 0
220, 14.25, 0.5, 0
221, 14.5, 0.5, 0
222, 14.75, 0.5, 0
223, 15, 0.5, 0
224, 15.25, 0.5, 0
225, 15.5, 0.5, 0
226, 15.75, 0.5, 0
227, 16, 0.5, 0
228, 16.25, 0.5, 0
229, 16.5, 0.5, 0
230, 16.75, 0.5, 0
231, 17, 0.5, 0
232, 17.25, 0.5, 0
233, 17.5, 0.5, 0
234, 17.75, 0.5, 0
235, 18, 0.5, 0
236, 18.25, 0.5, 0
237, 18.5, 0.5, 0
238, 18.75, 0.5, 0
239, 19, 0.5, 0
240, 19.25, 0.5, 0
241, 19.5, 0.5, 0
242, 19.75, 0.5, 0
243, 20, 0.5, 0
244, 0, 0.75, 0
245, 0.25, 0.75, 0
246, 0.5, 0.75, 0
247, 0.75, 0.75, 0
248, 1, 0.75, 0
249, 1.25, 0.75, 0
250, 1.5, 0.75, 0
251, 1.75, 0.75, 0
252, 2, 0.75, 0
253, 2.25, 0.75, 0
254, 2.5, 0.75, 0
255, 2.75, 0.75, 0
256, 3, 0.75, 0
257, 3.25, 0.75, 0
258, 3.5, 0.75, 0
259, 3.75, 0.75, 0
260, 4, 0.75, 0
261, 4.25, 0.75, 0
262, 4.5, 0.75, 0
263, 4.75, 0.75, 0
264, 5, 0.75, 0
265, 5.25, 0.75, 0
266, 5.5, 0.75, 0
267, 5.75, 0.75, 0
268, 6, 0.75, 0
269, 6.25, 0.75, 0
270, 6.5, 0.75, 0
271, 6.75, 0.75, 0
272, 7, 0.75, 0
273, 7.25, 0.75, 0
274, 7.5, 0.75, 0
275, 7.75, 0.75, 0
276, 8, 0.75, 0
277, 8.25, 0.75, 0
278, 8.5, 0.75, 0
279, 8.75, 0.75, 0
280, 9, 0.75, 0
281, 9.25, 0.75, 0
282, 9.5, 0.75, 0
283, 9.75, 0.75, 0
284, 10, 0.75, 0
285, 10.25, 0.75, 0
286, 10.5, 0.75, 0
287, 10.75, 0.75, 0
288, 11, 0.75, 0
289, 11.25, 0.75, 0
290, 11.5, 0.75, 0
291, 11.75, 0.75, 0
292, 12, 0.75, 0
293, 12.25, 0.75, 0
294, 12.5, 0.75, 0
295, 12.75, 0.75, 0
296, 13, 0.75, 0
297, 13.25, 0.75, 0
298, 13.5, 0.75, 0
299, 13.75, 0.75, 0
300, 14, 0.75, 0
301, 14.25, 0.75, 0
302, 14.5, 0.75, 0
303, 14.75, 0.75, 0
304, 15, 0.75, 0
305, 15.25, 0.75, 0
306, 15.5, 0.75, 0
307, 15.75, 0.75, 0
308, 16, 0.75, 0
309, 16.25, 0.75, 0
310, 16.5, 0.75, 0
311, 16.75, 0.75, 0
312, 17, 0.75, 0
313, 17.25, 0.75, 0
314, 17.5, 0.75, 0
315, 17.75, 0.75, 0
316, 18, 0.75, 0
317, 18.25, 0.75, 0
318, 18.5, 0.75, 0
319, 18.75, 0.75, 0
320, 19, 0.75, 0
321, 19.25, 0.75, 0
322, 19.5, 0.75, 0
323, 19.75, 0.75, 0
324, 20, 0.75, 0
325, 0, 1, 0
326, 0.25, 1, 0
327, 0.5, 1, 0
328, 0.75, 1, 0
329, 1, 1, 0
330, 1.25, 1, 0
331, 1.5, 1, 0
332, 1.75, 1, 0
333, 2, 1, 0
334, 2.25, 1, 0
335, 2.5, 1, 0
336, 2.75, 1, 0
337, 3, 1, 0
338, 3.25, 1, 0
339, 3.5, 1, 0
340, 3.75, 1, 0
341, 4, 1, 0
342, 4.25, 1, 0
343, 4.5, 1, 0
344, 4.75, 1, 0
345, 5, 1, 0
346, 5.25, 1, 0
347, 5.5, 1, 0
348, 5.75, 1, 0
349, 6, 1, 0
350, 6.25, 1, 0
351, 6.5, 1, 0
352, 6.75, 1, 0
353, 7, 1, 0
354, 7.25, 1, 0
355, 7.5, 1, 0
356, 7.75, 1, 0
357, 8, 1, 0
358, 8.25, 1, 0
359, 8.5, 1, 0
360, 8.75, 1, 0
361, 9, 1, 0
362, 9.25, 1, 0
363, 9.5, 1, 0
364, 9.75, 1, 0
365, 10, 1, 0
366, 10.25, 1, 0
367, 10.5, 1, 0
368, 10.75, 1, 0
369, 11, 1, 0
370, 11.25, 1, 0
371, 11.5, 1, 0
372, 11.75, 1, 0
373, 12, 1, 0
374, 12.25, 1, 0
375, 12.5, 1, 0
376, 12.75, 1, 0
377, 13, 1, 0
378, 13.25, 1, 0
379, 13.5, 1, 0
380, 13.75, 1, 0
381, 14, 1, 0
382, 14.25, 1, 0
383, 14.5, 1, 0
384, 14.75, 1, 0
385, 15, 1, 0
386, 15.25, 1, 0
387, 15.5, 1, 0
388, 15.75, 1, 0
389, 16, 1, 0
390, 16.25, 1, 0
391, 16.5, 1, 0
392, 16.75, 1, 0
393, 17, 1, 0
394, 17.25, 1, 0
395, 17.5, 1, 0
396, 17.75, 1, 0
397, 18, 1, 0
398, 18.25, 1, 0
399, 18.5, 1, 0
400, 18.75, 1, 0
401, 19, 1, 0
402, 19.25, 1, 0
403, 19.5, 1, 0
404, 19.75, 1, 0
405, 20, 1, 0
406, 0, 1.25, 0
407, 0.25, 1.25, 0
408, 0.5, 1.25, 0
409, 0.75, 1.25, 0
410, 1, 1.25, 0
411, 1.25, 1.25, 0
412, 1.5, 1.25, 0
413, 1.75, 1.25, 0
414, 2, 1.25, 0
415, 2.25, 1.25, 0
416, 2.5, 1.25, 0
417, 2.75, 1.25, 0
418, 3, 1.25, 0
419, 3.25, 1.25, 0
420, 3.5, 1.25, 0
421, 3.75, 1.25, 0
422, 4, 1.25, 0
423, 4.25, 1.25, 0
424, 4.5, 1.25, 0
425, 4.75, 1.25, 0
426, 5, 1.25, 0
427, 5.25, 1.25, 0
428, 5.5, 1.25, 0
429, 5.75, 1.25, 0
430, 6, 1.25, 0
431, 6.25, 1.25, 0
432, 6.5, 1.25, 0
433, 6.75, 1.25, 0
434, 7, 1.25, 0
435, 7.25, 1.25, 0
436, 7.5, 1.25, 0
437, 7.75, 1.25, 0
438, 8, 1.25, 0
439, 8.25, 1.25, 0
440, 8.5, 1.25, 0
441, 8.75, 1.25, 0
442, 9, 1.25, 0
443, 9.25, 1.25, 0
444, 9.5, 1.25, 0
445, 9.75, 1.25, 0
446, 10, 1.25, 0
447, 10.25, 1.25, 0
448, 10.5, 1.25, 0
449, 10.75, 1.25, 0
450, 11, 1.25, 0
451, 11.25, 1.25, 0
452, 11.5, 1.25, 0
453, 11.75, 1.25, 0
454, 12, 1.25, 0
455, 12.25, 1.25, 0
456, 12.5, 1.25, 0
457, 12.75, 1.25, 0
458, 13, 1.25, 0
459, 13.25, 1.25, 0
460, 13.5, 1.25, 0
461, 13.75, 1.25, 0
462, 14, 1.25, 0
463, 14.25, 1.25, 0
464, 14.5, 1.25, 0
465, 14.75, 1.25, 0
466, 15, 1.25, 0
467, 15.25, 1.25, 0
468, 15.5, 1.25, 0
469, 15.75, 1.25, 0
470, 16, 1.25, 0
471, 16.25, 1.25, 0
472, 16.5, 1.25, 0
473, 16.75, 1.25, 0
474, 17, 1.25, 0
475, 17.25, 1.25, 0
476, 17.5, 1.25, 0
477, 17.75, 1.25, 0
478, 18, 1.25, 0
479, 18.25, 1.25, 0
480, 18.5, 1.25, 0
481, 18.75, 1.25, 0
482, 19, 1.25, 0
483, 19.25, 1.25, 0
484, 19.5, 1.25, 0
485, 19.75, 1.25, 0
486, 20, 1.25, 0
487, 0, 1.5, 0
488, 0.25, 1.5, 0
489, 0.5, 1.5, 0
490, 0.75, 1.5, 0
491, 1, 1.5, 0
492, 1.25, 1.5, 0
493, 1.5, 1.5, 0
494, 1.75, 1.5, 0
495, 2, 1.5, 0
496, 2.25, 1.5, 0
497, 2.5, 1.5, 0
498, 2.75, 1.5, 0
499, 3, 1.5, 0
500, 3.25, 1.5, 0
501, 3.5, 1.5, 0
502, 3.75, 1.5, 0
503, 4, 1.5, 0
504, 4.25, 1.5, 0
505, 4.5, 1.5, 0
506, 4.75, 1.5, 0
507, 5, 1.5, 0
508, 5.25, 1.5, 0
509, 5.5, 1.5, 0
510, 5.75, 1.5, 0
511, 6, 1.5, 0
512, 6.25, 1.5, 0
513, 6.5, 1.5, 0
514, 6.75, 1.5, 0
515, 7, 1.5, 0
516, 7.25, 1.5, 0
517, 7.5, 1.5, 0
518, 7.75, 1.5, 0
519, 8, 1.5, 0
520, 8.25, 1.5, 0
521, 8.5, 1.5, 0
522, 8.75, 1.5, 0
523, 9, 1.5, 0
524, 9.25, 1.5, 0
525, 9.5, 1.5, 0
526, 9.75, 1.5, 0
527, 10, 1.5, 0
528, 10.25, 1.5, 0
529, 10.5, 1.5, 0
530, 10.75, 1.5, 0
531, 11, 1.5, 0
532, 11.25, 1.5, 0
533, 11.5, 1.5, 0
534, 11.75, 1.5, 0
535, 12, 1.5, 0
536, 12.25, 1.5, 0
537, 12.5, 1.5, 0
538, 12.75, 1.5, 0
539, 13, 1.5, 0
540, 13.25, 1.5, 0
541, 13.5, 1.5, 0
542, 13.75, 1.5, 0
543, 14, 1.5, 0
544, 14.25, 1.5, 0
545, 14.5, 1.5, 0
546, 14.75, 1.5, 0
547, 15, 1.5, 0
548, 15.25, 1.5, 0
549, 15.5, 1.5, 0
550, 15.75, 1.5, 0
551, 16, 1.5, 0
552, 16.25, 1.5, 0
553, 16.5, 1.5, 0
554, 16.75, 1.5, 0
555, 17, 1.5, 0
556, 17.25, 1.5, 0
557, 17.5, 1.5, 0
558, 17.75, 1.5, 0
559, 18, 1.5, 0
560, 18.25, 1.5, 0
561, 18.5, 1.5, 0
562, 18.75, 1.5, 0
563, 19, 1.5, 0
564, 19.25, 1.5, 0
565, 19.5, 1.5, 0
566, 19.75, 1.5, 0
567, 20, 1.5, 0
568, 0, 1.75, 0
569, 0.25, 1.75, 0
570, 0.5, 1.75, 0
571, 0.75, 1.75, 0
572, 1, 1.75, 0
573, 1.25, 1.75, 0
574, 1.5, 1.75, 0
575, 1.75, 1.75, 0
576, 2, 1.75, 0
577, 2.25, 1.75, 0
578, 2.5, 1.75, 0
579, 2.75, 1.75, 0
580, 3, 1.75, 0
581, 3.25, 1.75, 0
582, 3.5, 1.75, 0
583, 3.75, 1.75, 0
584, 4, 1.75, 0
585, 4.25, 1.75, 0
586, 4.5, 1.75, 0
587, 4.75, 1.75, 0
588, 5, 1.75, 0
589, 5.25, 1.75, 0
590, 5.5, 1.75, 0
591, 5.75, 1.75, 0
592, 6, 1.75, 0
593, 6.25, 1.75, 0
594, 6.5, 1.75, 0
595, 6.75, 1.75, 0
596, 7, 1.75, 0
597, 7.25, 1.75, 0
598, 7.5, 1.75, 0
599, 7.75, 1.75, 0
600, 8, 1.75, 0
601, 8.25, 1.75, 0
602, 8.5, 1.75, 0
603, 8.75, 1.75, 0
604, 9, 1.75, 0
605, 9.25, 1.75, 0
606, 9.5, 1.75, 0
607, 9.75, 1.75, 0
608, 10, 1.75, 0
609, 10.25, 1.75, 0
610, 10.5, 1.75, 0
611, 10.75, 1.75, 0
612, 11, 1.75, 0
613, 11.25, 1.75, 0
614, 11.5, 1.75, 0
615, 11.75, 1.75, 0
616, 12, 1.75, 0
617, 12.25, 1.75, 0
618, 12.5, 1.75, 0
619, 12.75, 1.75, 0
620, 13, 1.75, 0
621, 13.25, 1.75, 0
622, 13.5, 1.75, 0
623, 13.75, 1.75, 0
624, 14, 1.75, 0
625, 14.25, 1.75, 0
626, 14.5, 1.75, 0
627, 14.75, 1.75, 0
628, 15, 1.75, 0
629, 15.25, 1.75, 0
630, 15.5, 1.75, 0
631, 15.75, 1.75, 0
632, 16, 1.75, 0
633, 16.25, 1.75, 0
634, 16.5, 1.75, 0
635, 16.75, 1.75, 0
636, 17, 1.75, 0
637, 17.25, 1.75, 0
638, 17.5, 1.75, 0
639, 17.75, 1.75, 0
640, 18, 1.75, 0
641, 18.25, 1.75, 0
642, 18.5, 1.75, 0
643, 18.75, 1.75, 0
644, 19, 1.75, 0
645, 19.25, 1.75, 0
646, 19.5, 1.75, 0
647, 19.75, 1.75, 0
648, 20, 1.75, 0
649, 0, 2, 0
650, 0.25, 2, 0
651, 0.5, 2, 0
652, 0.75, 2, 0
653, 1, 2, 0
654, 1.25, 2, 0
655, 1.5, 2, 0
656, 1.75, 2, 0
657, 2, 2, 0
658, 2.25, 2, 0
659, 2.5, 2, 0
660, 2.75, 2, 0
661, 3, 2, 0
662, 3.25, 2, 0
663, 3.5, 2, 0
664, 3.75, 2, 0
665, 4, 2, 0
666, 4.25, 2, 0
667, 4.5, 2, 0
668, 4.75, 2, 0
669, 5, 2, 0
670, 5.25, 2, 0
671, 5.5, 2, 0
672, 5.75, 2, 0
673, 6, 2, 0
674, 6.25, 2, 0
675, 6.5, 2, 0
676, 6.75, 2, 0
677, 7, 2, 0
678, 7.25, 2, 0
679, 7.5, 2, 0
680, 7.75, 2, 0
681, 8, 2, 0
682, 8.25, 2, 0
683, 8.5, 2, 0
684, 8.75, 2, 0
685, 9, 2, 0
686, 9.25, 2, 0
687, 9.5, 2, 0
688, 9.75, 2, 0
689, 10, 2, 0
690, 10.25, 2, 0
691, 10.5, 2, 0
692, 10.75, 2, 0
693, 11, 2, 0
694, 11.25, 2, 0
695, 11.5, 2, 0
696, 11.75, 2, 0
697, 12, 2, 0
698, 12.25, 2, 0
699, 12.5, 2, 0
700, 12.75, 2, 0
701, 13, 2, 0
702, 13.25, 2, 0
703, 13.5, 2, 0
704, 13.75, 2, 0
705, 14, 2, 0
706, 14.25, 2, 0
707, 14.5, 2, 0
708, 14.75, 2, 0
709, 15, 2, 0
710, 15.25, 2, 0
711, 15.5, 2, 0
712, 15.75, 2, 0
713, 16, 2, 0
714, 16.25, 2, 0
715, 16.5, 2, 0
716, 16.75, 2, 0
717, 17, 2, 0
718, 17.25, 2, 0
719, 17.5, 2, 0
720, 17.75, 2, 0
721, 18, 2, 0
722, 18.25, 2, 0
723, 18.5, 2, 0
724, 18.75, 2, 0
725, 19, 2, 0
726, 19.25, 2, 0
727, 19.5, 2, 0
728, 19.75, 2, 0
729, 20, 2, 0
730, 0, 2.25, 0
731, 0.25, 2.25, 0
732, 0.5, 2.25, 0
733, 0.75, 2.25, 0
734, 1, 2.25, 0
735, 1.25, 2.25, 0
736, 1.5, 2.25, 0
737, 1.75, 2.25, 0
738, 2, 2.25, 0
739, 2.25, 2.25, 0
740, 2.5, 2.25, 0
741, 2.75, 2.25, 0
742, 3, 2.25, 0
743, 3.25, 2.25, 0
744, 3.5, 2.25, 0
745, 3.75, 2.25, 0
746, 4, 2.25, 0
747, 4.25, 2.25, 0
748, 4.5, 2.25, 0
749, 4.75, 2.25, 0
750, 5, 2.25, 0
751, 5.25, 2.25, 0
752, 5.5, 2.25, 0
753, 5.75, 2.25, 0
754, 6, 2.25, 0
755, 6.25, 2.25, 0
756, 6.5, 2.25, 0
757, 6.75, 2.25, 0
758, 7, 2.25, 0
759, 7.25, 2.25, 0
760, 7.5, 2.25, 0
761, 7.75, 2.25, 0
762, 8, 2.25, 0
763, 8.25, 2.25, 0
764, 8.5, 2.25, 0
765, 8.75, 2.25, 0
766, 9, 2.25, 0
767, 9.25, 2.25, 0
768, 9.5, 2.25, 0
769, 9.75, 2.25, 0
770, 10, 2.25, 0
771, 10.25, 2.25, 0
772, 10.5, 2.25, 0
773, 10.75, 2.25, 0
774, 11, 2.25, 0
775, 11.25, 2.25, 0
776, 11.5, 2.25, 0
777, 11.75, 2.25, 0
778, 12, 2.25, 0
779, 12.25, 2.25, 0
780, 12.5, 2.25, 0
781, 12.75, 2.25, 0
782, 13, 2.25, 0
783, 13.25, 2.25, 0
784, 13.5, 2.25, 0
785, 13.75, 2.25, 0
786, 14, 2.25, 0
787, 14.25, 2.25, 0
788, 14.5, 2.25, 0
789, 14.75, 2.25, 0
790, 15, 2.25, 0
791, 15.25, 2.25, 0
792, 15.5, 2.25, 0
793, 15.75, 2.25, 0
794, 16, 2.25, 0
795, 16.25, 2.25, 0
796, 16.5, 2.25, 0
797, 16.75, 2.25, 0
798, 17, 2.25, 0
799, 17.25, 2.25, 0
800, 17.5, 2.25, 0
801, 17.75, 2.25, 0
802, 18, 2.25, 0
803, 18.25, 2.25, 0
804, 18.5, 2.25, 0
805, 18.75, 2.25, 0
806, 19, 2.25, 0
807, 19.25, 2.25, 0
808, 19.5, 2.25, 0
809, 19.75, 2.25, 0
810, 20, 2.25, 0
811, 0, 2.5, 0
812, 0.25, 2.5, 0
813, 0.5, 2.5, 0
814, 0.75, 2.5, 0
815, 1, 2.5, 0
816, 1.25, 2.5, 0
817, 1.5, 2.5, 0
818, 1.75, 2.5, 0
819, 2, 2.5, 0
820, 2.25, 2.5, 0
821, 2.5, 2.5, 0
822, 2.75, 2.5, 0
823, 3, 2.5, 0
824, 3.25, 2.5, 0
825, 3.5, 2.5, 0
826, 3.75, 2.5, 0
827, 4, 2.5, 0
828, 4.25, 2.5, 0
829, 4.5, 2.5, 0
830, 4.75, 2.5, 0
831, 5, 2.5, 0
832, 5.25, 2.5, 0
833, 5.5, 2.5, 0
834, 5.75, 2.5, 0
835, 6, 2.5, 0
836, 6.25, 2.5, 0
837, 6.5, 2.5, 0
838, 6.75, 2.5, 0
839, 7, 2.5, 0
840, 7.25, 2.5, 0
841, 7.5, 2.5, 0
842, 7.75, 2.5, 0
843, 8, 2.5, 0
844, 8.25, 2.5, 0
845, 8.5, 2.5, 0
846, 8.75, 2.5, 0
847, 9, 2.5, 0
848, 9.25, 2.5, 0
849, 9.5, 2.5, 0
850, 9.75, 2.5, 0
851, 10, 2.5, 0
852, 10.25, 2.5, 0
853, 10.5, 2.5, 0
854, 10.75, 2.5, 0
855, 11, 2.5, 0
856, 11.25, 2.5, 0
857, 11.5, 2.5, 0
858, 11.75, 2.5, 0
859, 12, 2.5, 0
860, 12.25, 2.5, 0
861, 12.5, 2.5, 0
862, 12.75, 2.5, 0
863, 13, 2.5, 0
864, 13.25, 2.5, 0
865, 13.5, 2.5, 0
866, 13.75, 2.5, 0
867, 14, 2.5, 0
868, 14.25, 2.5, 0
869, 14.5, 2.5, 0
870, 14.75, 2.5, 0
871, 15, 2.5, 0
872, 15.25, 2.5, 0
873, 15.5, 2.5, 0
874, 15.75, 2.5, 0
875, 16, 2.5, 0
876, 16.25, 2.5, 0
877, 16.5, 2.5, 0
878, 16.75, 2.5, 0
879, 17, 2.5, 0
880, 17.25, 2.5, 0
881, 17.5, 2.5, 0
882, 17.75, 2.5, 0
883, 18, 2.5, 0
884, 18.25, 2.5, 0
885, 18.5, 2.5, 0
886, 18.75, 2.5, 0
887, 19, 2.5, 0
888, 19.25, 2.5, 0
889, 19.5, 2.5, 0
890, 19.75, 2.5, 0
891, 20, 2.5, 0
892, 0, 2.75, 0
893, 0.25, 2.75, 0
894, 0.5, 2.75, 0
895, 0.75, 2.75, 0
896, 1, 2.75, 0
897, 1.25, 2.75, 0
898, 1.5, 2.75, 0
899, 1.75, 2.75, 0
900, 2, 2.75, 0
901, 2.25, 2.75, 0
902, 2.5, 2.75, 0
903, 2.75, 2.75, 0
904, 3, 2.75, 0
905, 3.25, 2.75, 0
906, 3.5, 2.75, 0
907, 3.75, 2.75, 0
908, 4, 2.75, 0
909, 4.25, 2.75, 0
910, 4.5, 2.75, 0
911, 4.75, 2.75, 0
912, 5, 2.75, 0
913, 5.25, 2.75, 0
914, 5.5, 2.75, 0
915, 5.75, 2.75, 0
916, 6, 2.75, 0
917, 6.25, 2.75, 0
918, 6.5, 2.75, 0
919, 6.75, 2.75, 0
920, 7, 2.75, 0
921, 7.25, 2.75, 0
922, 7.5, 2.75, 0
923, 7.75, 2.75, 0
924, 8, 2.75, 0
925, 8.25, 2.75, 0
926, 8.5, 2.75, 0
927, 8.75, 2.75, 0
928, 9, 2.75, 0
929, 9.25, 2.75, 0
930, 9.5, 2.75, 0
931, 9.75, 2.75, 0
932, 10, 2.75, 0
933, 10.25, 2.75, 0
934, 10.5, 2.75, 0
935, 10.75, 2.75, 0
936, 11, 2.75, 0
937, 11.25, 2.75, 0
938, 11.5, 2.75, 0
939, 11.75, 2.75, 0
940, 12, 2.75, 0
941, 12.25, 2.75, 0
942, 12.5, 2.75, 0
943, 12.75, 2.75, 0
944, 13, 2.75, 0
945, 13.25, 2.75, 0
946, 13.5, 2.75, 0
947, 13.75, 2.75, 0
948, 14, 2.75, 0
949, 14.25, 2.75, 0
950, 14.5, 2.75, 0
951, 14.75, 2.75, 0
952, 15, 2.75, 0
953, 15.25, 2.75, 0
954, 15.5, 2.75, 0
955, 15.75, 2.75, 0
956, 16, 2.75, 0
957, 16.25, 2.75, 0
958, 16.5, 2.75, 0
959, 16.75, 2.75, 0
960, 17, 2.75, 0
961, 17.25, 2.75, 0
962, 17.5, 2.75, 0
963, 17.75, 2.75, 0
964, 18, 2.75, 0
965, 18.25, 2.75, 0
966, 18.5, 2.75, 0
967, 18.75, 2.75, 0
968, 19, 2.75, 0
969, 19.25, 2.75, 0
970, 19.5, 2.75, 0
971, 19.75, 2.75, 0
972, 20, 2.75, 0
973, 0, 3, 0
974, 0.25, 3, 0
975, 0.5, 3, 0
976, 0.75, 3, 0
977, 1, 3, 0
978, 1.25, 3, 0
979, 1.5, 3, 0
980, 1.75, 3, 0
981, 2, 3, 0
982, 2.25, 3, 0
983, 2.5, 3, 0
984, 2.75, 3, 0
985, 3, 3, 0
986, 3.25, 3, 0
987, 3.5, 3, 0
988, 3.75, 3, 0
989, 4, 3, 0
990, 4.25, 3, 0
991, 4.5, 3, 0
992, 4.75, 3, 0
993, 5, 3, 0
994, 5.25, 3, 0
995, 5.5, 3, 0
996, 5.75, 3, 0
997, 6, 3, 0
998, 6.25, 3, 0
999, 6.5, 3, 0
1000, 6.75, 3, 0
1001, 7, 3, 0
1002, 7.25, 3, 0
1003, 7.5, 3, 0
1004, 7.75, 3, 0
1005, 8, 3, 0
1006, 8.25, 3, 0
1007, 8.5, 3, 0
1008, 8.75, 3, 0
1009, 9, 3, 0
1010, 9.25, 3, 0
1011, 9.5, 3, 0
1012, 9.75, 3, 0
1013, 10, 3, 0
1014, 10.25, 3, 0
1015, 10.5, 3, 0
1016, 10.75, 3, 0
1017, 11, 3, 0
1018, 11.25, 3, 0
1019, 11.5, 3, 0
1020, 11.75, 3, 0
1021, 12, 3, 0
1022, 12.25, 3, 0
1023, 12.5, 3, 0
1024, 12.75, 3, 0
1025, 13, 3, 0
1026, 13.25, 3, 0
1027, 13.5, 3, 0
1028, 13.75, 3, 0
1029, 14, 3, 0
1030, 14.25, 3, 0
1031, 14.5, 3, 0
1032, 14.75, 3, 0
1033, 15, 3, 0
1034, 15.25, 3, 0
1035, 15.5, 3, 0
1036, 15.75, 3, 0
1037, 16, 3, 0
1038, 16.25, 3, 0
1039, 16.5, 3, 0
1040, 16.75, 3, 0
1041, 17, 3, 0
1042, 17.25, 3, 0
1043, 17.5, 3, 0
1044, 17.75, 3, 0
1045, 18, 3, 0
1046, 18.25, 3, 0
1047, 18.5, 3, 0
1048, 18.75, 3, 0
1049, 19, 3, 0
1050, 19.25, 3, 0
1051, 19.5, 3, 0
1052, 19.75, 3, 0
1053, 20, 3, 0
1054, 0, 3.25, 0
1055, 0.25, 3.25, 0
1056, 0.5, 3.25, 0
1057, 0.75, 3.25, 0
1058, 1, 3.25, 0
1059, 1.25, 3.25, 0
1060, 1.5, 3.25, 0
1061, 1.75, 3.25, 0
1062, 2, 3.25, 0
1063, 2.25, 3.25, 0
1064, 2.5, 3.25, 0
1065, 2.75, 3.25, 0
1066, 3, 3.25, 0
1067, 3.25, 3.25, 0
1068, 3.5, 3.25, 0
1069, 3.75, 3.25, 0
1070, 4, 3.25, 0
1071, 4.25, 3.25, 0
1072, 4.5, 3.25, 0
1073, 4.75, 3.25, 0
1074, 5, 3.25, 0
1075, 5.25, 3.25, 0
1076, 5.5, 3.25, 0
1077, 5.75, 3.25, 0
1078, 6, 3.25, 0
1079, 6.25, 3.25, 0
1080, 6.5, 3.25, 0
1081, 6.75, 3.25, 0
1082, 7, 3.25, 0
1083, 7.25, 3.25, 0
1084, 7.5, 3.25, 0
1085, 7.75, 3.25, 0
1086, 8, 3.25, 0
1087, 8.25, 3.25, 0
1088, 8.5, 3.25, 0
1089, 8.75, 3.25, 0
1090, 9, 3.25, 0
1091, 9.25, 3.25, 0
1092, 9.5, 3.25, 0
1093, 9.75, 3.25, 0
1094, 10, 3.25, 0
1095, 10.25, 3.25, 0
1096, 10.5, 3.25, 0
1097, 10.75, 3.25, 0
1098, 11, 3.25, 0
1099, 11.25, 3.25, 0
1100, 11.5, 3.25, 0
1101, 11.75, 3.25, 0
1102, 12, 3.25, 0
1103, 12.25, 3.25, 0
1104, 12.5, 3.25, 0
1105, 12.75, 3.25, 0
1106, 13, 3.25, 0
1107, 13.25, 3.25, 0
1108, 13.5, 3.25, 0
1109, 13.75, 3.25, 0
1110, 14, 3.25, 0
1111, 14.25, 3.25, 0
1112, 14.5, 3.25, 0
1113, 14.75, 3.25, 0
1114, 15, 3.25, 0
1115, 15.25, 3.25, 0
1116, 15.5, 3.25, 0
1117, 15.75, 3.25, 0
1118, 16, 3.25, 0
1119, 16.25, 3.25, 0
1120, 16.5, 3.25, 0
1121, 16.75, 3.25, 0
1122, 17, 3.25, 0
1123, 17.25, 3.25, 0
1124, 17.5, 3.25, 0
1125, 17.75, 3.25, 0
1126, 18, 3.25, 0
1127, 18.25, 3.25, 0
1128, 18.5, 3.25, 0
1129, 18.75, 3.25, 0
1130, 19, 3.25, 0
1131, 19.25, 3.25, 0
1132, 19.5, 3.25, 0
1133, 19.75, 3.25, 0
1134, 20, 3.25, 0
1135, 0, 3.5, 0
1136, 0.25, 3.5, 0
1137, 0.5, 3.5, 0
1138, 0.75, 3.5, 0
1139, 1, 3.5, 0
1140, 1.25, 3.5, 0
1141, 1.5, 3.5, 0
1142, 1.75, 3.5, 0
1143, 2, 3.5, 0
1144, 2.25, 3.5, 0
1145, 2.5, 3.5, 0
1146, 2.75, 3.5, 0
1147, 3, 3.5, 0
1148, 3.25, 3.5, 0
1149, 3.5, 3.5, 0
1150, 3.75, 3.5, 0
1151, 4, 3.5, 0
1152, 4.25, 3.5, 0
1153, 4.5, 3.5, 0
1154, 4.75, 3.5, 0
1155, 5, 3.5, 0
1156, 5.25, 3.5, 0
1157, 5.5, 3.5, 0
1158, 5.75, 3.5, 0
1159, 6, 3.5, 0
1160, 6.25, 3.5, 0
1161, 6.5, 3.5, 0
1162, 6.75, 3.5, 0
1163, 7, 3.5, 0
1164, 7.25, 3.5, 0
1165, 7.5, 3.5, 0
1166, 7.75, 3.5, 0
1167, 8, 3.5, 0
1168, 8.25, 3.5, 0
1169, 8.5, 3.5, 0
1170, 8.75, 3.5, 0
1171, 9, 3.5, 0
1172, 9.25, 3.5, 0
1173, 9.5, 3.5, 0
1174, 9.75, 3.5, 0
1175, 10, 3.5, 0
1176, 10.25, 3.5, 0
1177, 10.5, 3.5, 0
1178, 10.75, 3.5, 0
1179, 11, 3.5, 0
1180, 11.25, 3.5, 0
1181, 11.5, 3.5, 0
1182, 11.75, 3.5, 0
1183, 12, 3.5, 0
1184, 12.25, 3.5, 0
1185, 12.5, 3.5, 0
1186, 12.75, 3.5, 0
1187, 13, 3.5, 0
1188, 13.25, 3.5, 0
1189, 13.5, 3.5, 0
1190, 13.75, 3.5, 0
1191, 14, 3.5, 0
1192, 14.25, 3.5, 0
1193, 14.5, 3.5, 0
1194, 14.75, 3.5, 0
1195, 15, 3.5, 0
1196, 15.25, 3.5, 0
1197, 15.5, 3.5, 0
1198, 15.75, 3.5, 0
1199, 16, 3.5, 0
1200, 16.25, 3.5, 0
1201, 16.5, 3.5, 0
1202, 16.75, 3.5, 0
1203, 17, 3.5, 0
1204, 17.25, 3.5, 0
1205, 17.5, 3.5, 0
1206, 17.75, 3.5, 0
1207, 18, 3.5, 0
1208, 18.25, 3.5, 0
1209, 18.5, 3.5, 0
1210, 18.75, 3.5, 0
1211, 19, 3.5, 0
1212, 19.25, 3.5, 0
1213, 19.5, 3.5, 0
1214, 19.75, 3.5, 0
1215, 20, 3.5, 0
1216, 0, 3.75, 0
1217, 0.25, 3.75, 0
1218, 0.5, 3.75, 0
1219, 0.75, 3.75, 0
1220, 1, 3.75, 0
1221, 1.25, 3.75, 0
1222, 1.5, 3.75, 0
1223, 1.75, 3.75, 0
1224, 2, 3.75, 0
1225, 2.25, 3.75, 0
1226, 2.5, 3.75, 0
1227, 2.75, 3.75, 0
1228, 3, 3.75, 0
1229, 3.25, 3.75, 0
1230, 3.5, 3.75, 0
1231, 3.75, 3.75, 0
1232, 4, 3.75, 0
1233, 4.25, 3.75, 0
1234, 4.5, 3.75, 0
1235, 4.75, 3.75, 0
1236, 5, 3.75, 0
1237, 5.25, 3.75, 0
1238, 5.5, 3.75, 0
1239, 5.75, 3.75, 0
1240, 6, 3.75, 0
1241, 6.25, 3.75, 0
1242, 6.5, 3.75, 0
1243, 6.75, 3.75, 0
1244, 7, 3.75, 0
1245, 7.25, 3.75, 0
1246, 7.5, 3.75, 0
1247, 7.75, 3.75, 0
1248, 8, 3.75, 0
1249, 8.25, 3.75, 0
1250, 8.5, 3.75, 0
1251, 8.75, 3.75, 0
1252, 9, 3.75, 0
1253, 9.25, 3.75, 0
1254, 9.5, 3.75, 0
1255, 9.75, 3.75, 0
1256, 10, 3.75, 0
1257, 10.25, 3.75, 0
1258, 10.5, 3.75, 0
1259, 10.75, 3.75, 0
1260, 11, 3.75, 0
1261, 11.25, 3.75, 0
1262, 11.5, 3.75, 0
1263, 11.75, 3.75, 0
1264, 12, 3.75, 0
1265, 12.25, 3.75, 0
1266, 12.5, 3.75, 0
1267, 12.75, 3.75, 0
1268, 13, 3.75, 0
1269, 13.25, 3.75, 0
1270, 13.5, 3.75, 0
1271, 13.75, 3.75, 0
1272, 14, 3.75, 0
1273, 14.25, 3.75, 0
1274, 14.5, 3.75, 0
1275, 14.75, 3.75, 0
1276, 15, 3.75, 0
1277, 15.25, 3.75, 0
1278, 15.5, 3.75, 0
1279, 15.75, 3.75, 0
1280, 16, 3.75, 0
1281, 16.25, 3.75, 0
1282, 16.5, 3.75, 0
1283, 16.75, 3.75, 0
1284, 17, 3.75, 0
1285, 17.25, 3.75, 0
1286, 17.5, 3.75, 0
1287, 17.75, 3.75, 0
1288, 18, 3.75, 0
1289, 18.25, 3.75, 0
1290, 18.5, 3.75, 0
1291, 18.75, 3.75, 0
1292, 19, 3.75, 0
1293, 19.25, 3.75, 0
1294, 19.5, 3.75, 0
1295, 19.75, 3.75, 0
1296, 20, 3.75, 0
1297, 0, 4, 0
1298, 0.25, 4, 0
1299, 0.5, 4, 0
1300, 0.75, 4, 0
1301, 1, 4, 0
1302, 1.25, 4, 0
1303, 1.5, 4, 0
1304, 1.75, 4, 0
1305, 2, 4, 0
1306, 2.25, 4, 0
1307, 2.5, 4, 0
1308, 2.75, 4, 0
1309, 3, 4, 0
1310, 3.25, 4, 0
1311, 3.5, 4, 0
1312, 3.75, 4, 0
1313, 4, 4, 0
1314, 4.25, 4, 0
1315, 4.5, 4, 0
1316, 4.75, 4, 0
1317, 5, 4, 0
1318, 5.25, 4, 0
1319, 5.5, 4, 0
1320, 5.75, 4, 0
1321, 6, 4, 0
1322, 6.25, 4, 0
1323, 6.5, 4, 0
1324, 6.75, 4, 0
1325, 7, 4, 0
1326, 7.25, 4, 0
1327, 7.5, 4, 0
1328, 7.75, 4, 0
1329, 8, 4, 0
1330, 8.25, 4, 0
1331, 8.5, 4, 0
1332, 8.75, 4, 0
1333, 9, 4, 0
1334, 9.25, 4, 0
1335, 9.5, 4, 0
1336, 9.75, 4, 0
1337, 10, 4, 0
1338, 10.25, 4, 0
1339, 10.5, 4, 0
1340, 10.75, 4, 0
1341, 11, 4, 0
1342, 11.25, 4, 0
1343, 11.5, 4, 0
1344, 11.75, 4, 0
1345, 12, 4, 0
1346, 12.25, 4, 0
1347, 12.5, 4, 0
1348, 12.75, 4, 0
1349, 13, 4, 0
1350, 13.25, 4, 0
1351, 13.5, 4, 0
1352, 13.75, 4, 0
1353, 14, 4, 0
1354, 14.25, 4, 0
1355, 14.5, 4, 0
1356, 14.75, 4, 0
1357, 15, 4, 0
1358, 15.25, 4, 0
1359, 15.5, 4, 0
1360, 15.75, 4, 0
1361, 16, 4, 0
1362, 16.25, 4, 0
1363, 16.5, 4, 0
1364, 16.75, 4, 0
1365, 17, 4, 0
1366, 17.25, 4, 0
1367, 17.5, 4, 0
1368, 17.75, 4, 0
1369, 18, 4, 0
1370, 18.25, 4, 0
1371, 18.5, 4, 0
1372, 18.75, 4, 0
1373, 19, 4, 0
1374, 19.25, 4, 0
1375, 19.5, 4, 0
1376, 19.75, 4, 0
1377, 20, 4, 0
1378, 0, 4.25, 0
1379, 0.25, 4.25, 0
1380, 0.5, 4.25, 0
1381, 0.75, 4.25, 0
1382, 1, 4.25, 0
1383, 1.25, 4.25, 0
1384, 1.5, 4.25, 0
1385, 1.75, 4.25, 0
1386, 2, 4.25, 0
1387, 2.25, 4.25, 0
1388, 2.5, 4.25, 0
1389, 2.75, 4.25, 0
1390, 3, 4.25, 0
1391, 3.25, 4.25, 0
1392, 3.5, 4.25, 0
1393, 3.75, 4.25, 0
1394, 4, 4.25, 0
1395, 4.25, 4.25, 0
1396, 4.5, 4.25, 0
1397, 4.75, 4.25, 0
1398, 5, 4.25, 0
1399, 5.25, 4.25, 0
1400, 5.5, 4.25, 0
1401, 5.75, 4.25, 0
1402, 6, 4.25, 0
1403, 6.25, 4.25, 0
1404, 6.5, 4.25, 0
1405, 6.75, 4.25, 0
1406, 7, 4.25, 0
1407, 7.25, 4.25, 0
1408, 7.5, 4.25, 0
1409, 7.75, 4.25, 0
1410, 8, 4.25, 0
1411, 8.25, 4.25, 0
1412, 8.5, 4.25, 0
1413, 8.75, 4.25, 0
1414, 9, 4.25, 0
1415, 9.25, 4.25, 0
1416, 9.5, 4.25, 0
1417, 9.75, 4.25, 0
1418, 10, 4.25, 0
1419, 10.25, 4.25, 0
1420, 10.5, 4.25, 0
1421, 10.75, 4.25, 0
1422, 11, 4.25, 0
1423, 11.25, 4.25, 0
1424, 11.5, 4.25, 0
1425, 11.75, 4.25, 0
1426, 12, 4.25, 0
1427, 12.25, 4.25, 0
1428, 12.5, 4.25, 0
1429, 12.75, 4.25, 0
1430, 13, 4.25, 0
1431, 13.25, 4.25, 0
1432, 13.5, 4.25, 0
1433, 13.75, 4.25, 0
1434, 14, 4.25, 0
1435, 14.25, 4.25, 0
1436, 14.5, 4.25, 0
1437, 14.75, 4.25, 0
1438, 15, 4.25, 0
1439, 15.25, 4.25, 0
1440, 15.5, 4.25, 0
1441, 15.75, 4.25, 0
1442, 16, 4.25, 0
1443, 16.25, 4.25, 0
1444, 16.5, 4.25, 0
1445, 16.75, 4.25, 0
1446, 17, 4.25, 0
1447, 17.25, 4.25, 0
1448, 17.5, 4.25, 0
1449, 17.75, 4.25, 0
1450, 18, 4.25, 0
1451, 18.25, 4.25, 0
1452, 18.5, 4.25, 0
1453, 18.75, 4.25, 0
1454, 19, 4.25, 0
1455, 19.25, 4.25, 0
1456, 19.5, 4.25, 0
1457, 19.75, 4.25, 0
1458, 20, 4.25, 0
1459, 0, 4.5, 0
1460, 0.25, 4.5, 0
1461, 0.5, 4.5, 0
1462, 0.75, 4.5, 0
1463, 1, 4.5, 0
1464, 1.25, 4.5, 0
1465, 1.5, 4.5, 0
1466, 1.75, 4.5, 0
1467, 2, 4.5, 0
1468, 2.25, 4.5, 0
1469, 2.5, 4.5, 0
1470, 2.75, 4.5, 0
1471, 3, 4.5, 0
1472, 3.25, 4.5, 0
1473, 3.5, 4.5, 0
1474, 3.75, 4.5, 0
1475, 4, 4.5, 0
1476, 4.25, 4.5, 0
1477, 4.5, 4.5, 0
1478, 4.75, 4.5, 0
1479, 5, 4.5, 0
1480, 5.25, 4.5, 0
1481, 5.5, 4.5, 0
1482, 5.75, 4.5, 0
1483, 6, 4.5, 0
1484, 6.25, 4.5, 0
1485, 6.5, 4.5, 0
1486, 6.75, 4.5, 0
1487, 7, 4.5, 0
1488, 7.25, 4.5, 0
1489, 7.5, 4.5, 0
1490, 7.75, 4.5, 0
1491, 8, 4.5, 0
1492, 8.25, 4.5, 0
1493, 8.5, 4.5, 0
1494, 8.75, 4.5, 0
1495, 9, 4.5, 0
1496, 9.25, 4.5, 0
1497, 9.5, 4.5, 0
1498, 9.75, 4.5, 0
1499, 10, 4.5, 0
1500, 10.25, 4.5, 0
1501, 10.5, 4.5, 0
1502, 10.75, 4.5, 0
1503, 11, 4.5, 0
1504, 11.25, 4.5, 0
1505, 11.5, 4.5, 0
1506, 11.75, 4.5, 0
1507, 12, 4.5, 0
1508, 12.25, 4.5, 0
1509, 12.5, 4.5, 0
1510, 12.75, 4.5, 0
1511, 13, 4.5, 0
1512, 13.25, 4.5, 0
1513, 13.5, 4.5, 0
1514, 13.75, 4.5, 0
1515, 14, 4.5, 0
1516, 14.25, 4.5, 0
1517, 14.5, 4.5, 0
1518, 14.75, 4.5, 0
1519, 15, 4.5, 0
1520, 15.25, 4.5, 0
1521, 15.5, 4.5, 0
1522, 15.75, 4.5, 0
1523, 16, 4.5, 0
1524, 16.25, 4.5, 0
1525, 16.5, 4.5, 0
1526, 16.75, 4.5, 0
1527, 17, 4.5, 0
1528, 17.25, 4.5, 0
1529, 17.5, 4.5, 0
1530, 17.75, 4.5, 0
1531, 18, 4.5, 0
1532, 18.25, 4.5, 0
1533, 18.5, 4.5, 0
1534, 18.75, 4.5, 0
1535, 19, 4.5, 0
1536, 19.25, 4.5, 0
1537, 19.5, 4.5, 0
1538, 19.75, 4.5, 0
1539, 20, 4.5, 0
1540, 0, 4.75, 0
1541, 0.25, 4.75, 0
1542, 0.5, 4.75, 0
1543, 0.75, 4.75, 0
1544, 1, 4.75, 0
1545, 1.25, 4.75, 0
1546, 1.5, 4.75, 0
1547, 1.75, 4.75, 0
1548, 2, 4.75, 0
1549, 2.25, 4.75, 0
1550, 2.5, 4.75, 0
1551, 2.75, 4.75, 0
1552, 3, 4.75, 0
1553, 3.25, 4.75, 0
1554, 3.5, 4.75, 0
1555, 3.75, 4.75, 0
1556, 4, 4.75, 0
1557, 4.25, 4.75, 0
1558, 4.5, 4.75, 0
1559, 4.75, 4.75, 0
1560, 5, 4.75, 0
1561, 5.25, 4.75, 0
1562, 5.5, 4.75, 0
1563, 5.75, 4.75, 0
1564, 6, 4.75, 0
1565, 6.25, 4.75, 0
1566, 6.5, 4.75, 0
1567, 6.75, 4.75, 0
1568, 7, 4.75, 0
1569, 7.25, 4.75, 0
1570, 7.5, 4.75, 0
1571, 7.75, 4.75, 0
1572, 8, 4.75, 0
1573, 8.25, 4.75, 0
1574, 8.5, 4.75, 0
1575, 8.75, 4.75, 0
1576, 9, 4.75, 0
1577, 9.25, 4.75, 0
1578, 9.5, 4.75, 0
1579, 9.75, 4.75, 0
1580, 10, 4.75, 0
1581, 10.25, 4.75, 0
1582, 10.5, 4.75, 0
1583, 10.75, 4.75, 0
1584, 11, 4.75, 0
1585, 11.25, 4.75, 0
1586, 11.5, 4.75, 0
1587, 11.75, 4.75, 0
1588, 12, 4.75, 0
1589, 12.25, 4.75, 0
1590, 12.5, 4.75, 0
1591, 12.75, 4.75, 0
1592, 13, 4.75, 0
1593, 13.25, 4.75, 0
1594, 13.5, 4.75, 0
1595, 13.75, 4.75, 0
1596, 14, 4.75, 0
1597, 14.25, 4.75, 0
1598, 14.5, 4.75, 0
1599, 14.75, 4.75, 0
1600, 15, 4.75, 0
1601, 15.25, 4.75, 0
1602, 15.5, 4.75, 0
1603, 15.75, 4.75, 0
1604, 16, 4.75, 0
1605, 16.25, 4.75, 0
1606, 16.5, 4.75, 0
1607, 16.75, 4.75, 0
1608, 17, 4.75, 0
1609, 17.25, 4.75, 0
1610, 17.5, 4.75, 0
1611, 17.75, 4.75, 0
1612, 18, 4.75, 0
1613, 18.25, 4.75, 0
1614, 18.5, 4.75, 0
1615, 18.75, 4.75, 0
1616, 19, 4.75, 0
1617, 19.25, 4.75, 0
1618, 19.5, 4.75, 0
1619, 19.75, 4.75, 0
1620, 20, 4.75, 0
1621, 0, 5, 0
1622, 0.25, 5, 0
1623, 0.5, 5, 0
1624, 0.75, 5, 0
1625, 1, 5, 0
1626, 1.25, 5, 0
1627, 1.5, 5, 0
1628, 1.75, 5, 0
1629, 2, 5, 0
1630, 2.25, 5, 0
1631, 2.5, 5, 0
1632, 2.75, 5, 0
1633, 3, 5, 0
1634, 3.25, 5, 0
1635, 3.5, 5, 0
1636, 3.75, 5, 0
1637, 4, 5, 0
1638, 4.25, 5, 0
1639, 4.5, 5, 0
1640, 4.75, 5, 0
1641, 5, 5, 0
1642, 5.25, 5, 0
1643, 5.5, 5, 0
1644, 5.75, 5, 0
1645, 6, 5, 0
1646, 6.25, 5, 0
1647, 6.5, 5, 0
1648, 6.75, 5, 0
1649, 7, 5, 0
1650, 7.25, 5, 0
1651, 7.5, 5, 0
1652, 7.75, 5, 0
1653, 8, 5, 0
1654, 8.25, 5, 0
1655, 8.5, 5, 0
1656, 8.75, 5, 0
1657, 9, 5, 0
1658, 9.25, 5, 0
1659, 9.5, 5, 0
1660, 9.75, 5, 0
1661, 10, 5, 0
1662, 10.25, 5, 0
1663, 10.5, 5, 0
1664, 10.75, 5, 0
1665, 11, 5, 0
1666, 11.25, 5, 0
1667, 11.5, 5, 0
1668, 11.75, 5, 0
1669, 12, 5, 0
1670, 12.25, 5, 0
1671, 12.5, 5, 0
1672, 12.75, 5, 0
1673, 13, 5, 0
1674, 13.25, 5, 0
1675, 13.5, 5, 0
1676, 13.75, 5, 0
1677, 14, 5, 0
1678, 14.25, 5, 0
1679, 14.5, 5, 0
1680, 14.75, 5, 0
1681, 15, 5, 0
1682, 15.25, 5, 0
1683, 15.5, 5, 0
1684, 15.75, 5, 0
1685, 16, 5, 0
1686, 16.25, 5, 0
1687, 16.5, 5, 0
1688, 16.75, 5, 0
1689, 17, 5, 0
1690, 17.25, 5, 0
1691, 17.5, 5, 0
1692, 17.75, 5, 0
1693, 18, 5, 0
1694, 18.25, 5, 0
1695, 18.5, 5, 0
1696, 18.75, 5, 0
1697, 19, 5, 0
1698, 19.25, 5, 0
1699, 19.5, 5, 0
1700, 19.75, 5, 0
1701, 20, 5, 0
1702, 0, 5.25, 0
1703, 0.25, 5.25, 0
1704, 0.5, 5.25, 0
1705, 0.75, 5.25, 0
1706, 1, 5.25, 0
1707, 1.25, 5.25, 0
1708, 1.5, 5.25, 0
1709, 1.75, 5.25, 0
1710, 2, 5.25, 0
1711, 2.25, 5.25, 0
1712, 2.5, 5.25, 0
1713, 2.75, 5.25, 0
1714, 3, 5.25, 0
1715, 3.25, 5.25, 0
1716, 3.5, 5.25, 0
1717, 3.75, 5.25, 0
1718, 4, 5.25, 0
1719, 4.25, 5.25, 0
1720, 4.5, 5.25, 0
1721, 4.75, 5.25, 0
1722, 5, 5.25, 0
1723, 5.25, 5.25, 0
1724, 5.5, 5.25, 0
1725, 5.75, 5.25, 0
1726, 6, 5.25, 0
1727, 6.25, 5.25, 0
1728, 6.5, 5.25, 0
1729, 6.75, 5.25, 0
1730, 7, 5.25, 0
1731, 7.25, 5.25, 0
1732, 7.5, 5.25, 0
1733, 7.75, 5.25, 0
1734, 8, 5.25, 0
1735, 8.25, 5.25, 0
1736, 8.5, 5.25, 0
1737, 8.75, 5.25, 0
1738, 9, 5.25, 0
1739, 9.25, 5.25, 0
1740, 9.5, 5.25, 0
1741, 9.75, 5.25, 0
1742, 10, 5.25, 0
1743, 10.25, 5.25, 0
1744, 10.5, 5.25, 0
1745, 10.75, 5.25, 0
1746, 11, 5.25, 0
1747, 11.25, 5.25, 0
1748, 11.5, 5.25, 0
1749, 11.75, 5.25, 0
1750, 12, 5.25, 0
1751, 12.25, 5.25, 0
1752, 12.5, 5.25, 0
1753, 12.75, 5.25, 0
1754, 13, 5.25, 0
1755, 13.25, 5.25, 0
1756, 13.5, 5.25, 0
1757, 13.75, 5.25, 0
1758, 14, 5.25, 0
1759, 14.25, 5.25, 0
1760, 14.5, 5.25, 0
1761, 14.75, 5.25, 0
1762, 15, 5.25, 0
1763, 15.25, 5.25, 0
1764, 15.5, 5.25, 0
1765, 15.75, 5.25, 0
1766, 16, 5.25, 0
1767, 16.25, 5.25, 0
1768, 16.5, 5.25, 0
1769, 16.75, 5.25, 0
1770, 17, 5.25, 0
1771, 17.25, 5.25, 0
1772, 17.5, 5.25, 0
1773, 17.75, 5.25, 0
1774, 18, 5.25, 0
1775, 18.25, 5.25, 0
1776, 18.5, 5.25, 0
1777, 18.75, 5.25, 0
1778, 19, 5.25, 0
1779, 19.25, 5.25, 0
1780, 19.5, 5.25, 0
1781, 19.75, 5.25, 0
1782, 20, 5.25, 0
1783, 0, 5.5, 0
1784, 0.25, 5.5, 0
1785, 0.5, 5.5, 0
1786, 0.75, 5.5, 0
1787, 1, 5.5, 0
1788, 1.25, 5.5, 0
1789, 1.5, 5.5, 0
1790, 1.75, 5.5, 0
1791, 2, 5.5, 0
1792, 2.25, 5.5, 0
1793, 2.5, 5.5, 0
1794, 2.75, 5.5, 0
1795, 3, 5.5, 0
1796, 3.25, 5.5, 0
1797, 3.5, 5.5, 0
1798, 3.75, 5.5, 0
1799, 4, 5.5, 0
1800, 4.25, 5.5, 0
1801, 4.5, 5.5, 0
1802, 4.75, 5.5, 0
1803, 5, 5.5, 0
1804, 5.25, 5.5, 0
1805, 5.5, 5.5, 0
1806, 5.75, 5.5, 0
1807, 6, 5.5, 0
1808, 6.25, 5.5, 0
1809, 6.5, 5.5, 0
1810, 6.75, 5.5, 0
1811, 7, 5.5, 0
1812, 7.25, 5.5, 0
1813, 7.5, 5.5, 0
1814, 7.75, 5.5, 0
1815, 8, 5.5, 0
1816, 8.25, 5.5, 0
1817, 8.5, 5.5, 0
1818, 8.75, 5.5, 0
1819, 9, 5.5, 0
1820, 9.25, 5.5, 0
1821, 9.5, 5.5, 0
1822, 9.75, 5.5, 0
1823, 10, 5.5, 0
1824, 10.25, 5.5, 0
1825, 10.5, 5.5, 0
1826, 10.75, 5.5, 0
1827, 11, 5.5, 0
1828, 11.25, 5.5, 0
1829, 11.5, 5.5, 0
1830, 11.75, 5.5, 0
1831, 12, 5.5, 0
1832, 12.25, 5.5, 0
1833, 12.5, 5.5, 0
1834, 12.75, 5.5, 0
1835, 13, 5.5, 0
1836, 13.25, 5.5, 0
1837, 13.5, 5.5, 0
1838, 13.75, 5.5, 0
1839, 14, 5.5, 0
1840, 14.25, 5.5, 0
1841, 14.5, 5.5, 0
1842, 14.75, 5.5, 0
1843, 15, 5.5, 0
1844, 15.25, 5.5, 0
1845, 15.5, 5.5, 0
1846, 15.75, 5.5, 0
1847, 16, 5.5, 0
1848, 16.25, 5.5, 0
1849, 16.5, 5.5, 0
1850, 16.75, 5.5, 0
1851, 17, 5.5, 0
1852, 17.25, 5.5, 0
1853, 17.5, 5.5, 0
1854, 17.75, 5.5, 0
1855, 18, 5.5, 0
1856, 18.25, 5.5, 0
1857, 18.5, 5.5, 0
1858, 18.75, 5.5, 0
1859, 19, 5.5, 0
1860, 19.25, 5.5, 0
1861, 19.5, 5.5, 0
1862, 19.75, 5.5, 0
1863, 20, 5.5, 0
1864, 0, 5.75, 0
1865, 0.25, 5.75, 0
1866, 0.5, 5.75, 0
1867, 0.75, 5.75, 0
1868, 1, 5.75, 0
1869, 1.25, 5.75, 0
1870, 1.5, 5.75, 0
1871, 1.75, 5.75, 0
1872, 2, 5.75, 0
1873, 2.25, 5.75, 0
1874, 2.5, 5.75, 0
1875, 2.75, 5.75, 0
1876, 3, 5.75, 0
1877, 3.25, 5.75, 0
1878, 3.5, 5.75, 0
1879, 3.75, 5.75, 0
1880, 4, 5.75, 0
1881, 4.25, 5.75, 0
1882, 4.5, 5.75, 0
1883, 4.75, 5.75, 0
1884, 5, 5.75, 0
1885, 5.25, 5.75, 0
1886, 5.5, 5.75, 0
1887, 5.75, 5.75, 0
1888, 6, 5.75, 0
1889, 6.25, 5.75, 0
1890, 6.5, 5.75, 0
1891, 6.75, 5.75, 0
1892, 7, 5.75, 0
1893, 7.25, 5.75, 0
1894, 7.5, 5.75, 0
1895, 7.75, 5.75, 0
1896, 8, 5.75, 0
1897, 8.25, 5.75, 0
1898, 8.5, 5.75, 0
1899, 8.75, 5.75, 0
1900, 9, 5.75, 0
1901, 9.25, 5.75, 0
1902, 9.5, 5.75, 0
1903, 9.75, 5.75, 0
1904, 10, 5.75, 0
1905, 10.25, 5.75, 0
1906, 10.5, 5.75, 0
1907, 10.75, 5.75, 0
1908, 11, 5.75, 0
1909, 11.25, 5.75, 0
1910, 11.5, 5.75, 0
1911, 11.75, 5.75, 0
1912, 12, 5.75, 0
1913, 12.25, 5.75, 0
1914, 12.5, 5.75, 0
1915, 12.75, 5.75, 0
1916, 13, 5.75, 0
1917, 13.25, 5.75, 0
1918, 13.5, 5.75, 0
1919, 13.75, 5.75, 0
1920, 14, 5.75, 0
1921, 14.25, 5.75, 0
1922, 14.5, 5.75, 0
1923, 14.75, 5.75, 0
1924, 15, 5.75, 0
1925, 15.25, 5.75, 0
1926, 15.5, 5.75, 0
1927, 15.75, 5.75, 0
1928, 16, 5.75, 0
1929, 16.25, 5.75, 0
1930, 16.5, 5.75, 0
1931, 16.75, 5.75, 0
1932, 17, 5.75, 0
1933, 17.25, 5.75, 0
1934, 17.5, 5.75, 0
1935, 17.75, 5.75, 0
1936, 18, 5.75, 0
1937, 18.25, 5.75, 0
1938, 18.5, 5.75, 0
1939, 18.75, 5.75, 0
1940, 19, 5.75, 0
1941, 19.25, 5.75, 0
1942, 19.5, 5.75, 0
1943, 19.75, 5.75, 0
1944, 20, 5.75, 0
1945, 0, 6, 0
1946, 0.25, 6, 0
1947, 0.5, 6, 0
1948, 0.75, 6, 0
1949, 1, 6, 0
1950, 1.25, 6, 0
1951, 1.5, 6, 0
1952, 1.75, 6, 0
1953, 2, 6, 0
1954, 2.25, 6, 0
1955, 2.5, 6, 0
1956, 2.75, 6, 0
1957, 3, 6, 0
1958, 3.25, 6, 0
1959, 3.5, 6, 0
1960, 3.75, 6, 0
1961, 4, 6, 0
1962, 4.25, 6, 0
1963, 4.5, 6, 0
1964, 4.75, 6, 0
1965, 5, 6, 0
1966, 5.25, 6, 0
1967, 5.5, 6, 0
1968, 5.75, 6, 0
1969, 6, 6, 0
1970, 6.25, 6, 0
1971, 6.5, 6, 0
1972, 6.75, 6, 0
1973, 7, 6, 0
1974, 7.25, 6, 0
1975, 7.5, 6, 0
1976, 7.75, 6, 0
1977, 8, 6, 0
1978, 8.25, 6, 0
1979, 8.5, 6, 0
1980, 8.75, 6, 0
1981, 9, 6, 0
1982, 9.25, 6, 0
1983, 9.5, 6, 0
1984, 9.75, 6, 0
1985, 10, 6, 0
1986, 10.25, 6, 0
1987, 10.5, 6, 0
1988, 10.75, 6, 0
1989, 11, 6, 0
1990, 11.25, 6, 0
1991, 11.5, 6, 0
1992, 11.75, 6, 0
1993, 12, 6, 0
1994, 12.25, 6, 0
1995, 12.5, 6, 0
1996, 12.75, 6, 0
1997, 13, 6, 0
1998, 13.25, 6, 0
1999, 13.5, 6, 0
2000, 13.75, 6, 0
2001, 14, 6, 0
2002, 14.25, 6, 0
2003, 14.5, 6, 0
2004, 14.75, 6, 0
2005, 15, 6, 0
2006, 15.25, 6, 0
2007, 15.5, 6, 0
2008, 15.75, 6, 0
2009, 16, 6, 0
2010, 16.25, 6, 0
2011, 16.5, 6, 0
2012, 16.75, 6, 0
2013, 17, 6, 0
2014, 17.25, 6, 0
2015, 17.5, 6, 0
2016, 17.75, 6, 0
2017, 18, 6, 0
2018, 18.25, 6, 0
2019, 18.5, 6, 0
2020, 18.75, 6, 0
2021, 19, 6, 0
2022, 19.25, 6, 0
2023, 19.5, 6, 0
2024, 19.75, 6, 0
2025, 20, 6, 0
2026, 0, 6.25, 0
2027, 0.25, 6.25, 0
2028, 0.5, 6.25, 0
2029, 0.75, 6.25, 0
2030, 1, 6.25, 0
2031, 1.25, 6.25, 0
2032, 1.5, 6.25, 0
2033, 1.75, 6.25, 0
2034, 2, 6.25, 0
2035, 2.25, 6.25, 0
2036, 2.5, 6.25, 0
2037, 2.75, 6.25, 0
2038, 3, 6.25, 0
2039, 3.25, 6.25, 0
2040, 3.5, 6.25, 0
2041, 3.75, 6.25, 0
2042, 4, 6.25, 0
2043, 4.25, 6.25, 0
2044, 4.5, 6.25, 0
2045, 4.75, 6.25, 0
2046, 5, 6.25, 0
2047, 5.25, 6.25, 0
2048, 5.5, 6.25, 0
2049, 5.75, 6.25, 0
2050, 6, 6.25, 0
2051, 6.25, 6.25, 0
2052, 6.5, 6.25, 0
2053, 6.75, 6.25, 0
2054, 7, 6.25, 0
2055, 7.25, 6.25, 0
2056, 7.5, 6.25, 0
2057, 7.75, 6.25, 0
2058, 8, 6.25, 0
2059, 8.25, 6.25, 0
2060, 8.5, 6.25, 0
2061, 8.75, 6.25, 0
2062, 9, 6.25, 0
2063, 9.25, 6.25, 0
2064, 9.5, 6.25, 0
2065, 9.75, 6.25, 0
2066, 10, 6.25, 0
2067, 10.25, 6.25, 0
2068, 10.5, 6.25, 0
2069, 10.75, 6.25, 0
2070, 11, 6.25, 0
2071, 11.25, 6.25, 0
2072, 11.5, 6.25, 0
2073, 11.75, 6.25, 0
2074, 12, 6.25, 0
2075, 12.25, 6.25, 0
2076, 12.5, 6.25, 0
2077, 12.75, 6.25, 0
2078, 13, 6.25, 0
2079, 13.25, 6.25, 0
2080, 13.5, 6.25, 0
2081, 13.75, 6.25, 0
2082, 14, 6.25, 0
2083, 14.25, 6.25, 0
2084, 14.5, 6.25, 0
2085, 14.75, 6.25, 0
2086, 15, 6.25, 0
2087, 15.25, 6.25, 0
2088, 15.5, 6.25, 0
2089, 15.75, 6.25, 0
2090, 16, 6.25, 0
2091, 16.25, 6.25, 0
2092, 16.5, 6.25, 0
2093, 16.75, 6.25, 0
2094, 17, 6.25, 0
2095, 17.25, 6.25, 0
2096, 17.5, 6.25, 0
2097, 17.75, 6.25, 0
2098, 18, 6.25, 0
2099, 18.25, 6.25, 0
2100, 18.5, 6.25, 0
2101, 18.75, 6.25, 0
2102, 19, 6.25, 0
2103, 19.25, 6.25, 0
2104, 19.5, 6.25, 0
2105, 19.75, 6.25, 0
2106, 20, 6.25, 0
2107, 0, 6.5, 0
2108, 0.25, 6.5, 0
2109, 0.5, 6.5, 0
2110, 0.75, 6.5, 0
2111, 1, 6.5, 0
2112, 1.25, 6.5, 0
2113, 1.5, 6.5, 0
2114, 1.75, 6.5, 0
2115, 2, 6.5, 0
2116, 2.25, 6.5, 0
2117, 2.5, 6.5, 0
2118, 2.75, 6.5, 0
2119, 3, 6.5, 0
2120, 3.25, 6.5, 0
2121, 3.5, 6.5, 0
2122, 3.75, 6.5, 0
2123, 4, 6.5, 0
2124, 4.25, 6.5, 0
2125, 4.5, 6.5, 0
2126, 4.75, 6.5, 0
2127, 5, 6.5, 0
2128, 5.25, 6.5, 0
2129, 5.5, 6.5, 0
2130, 5.75, 6.5, 0
2131, 6, 6.5, 0
2132, 6.25, 6.5, 0
2133, 6.5, 6.5, 0
2134, 6.75, 6.5, 0
2135, 7, 6.5, 0
2136, 7.25, 6.5, 0
2137, 7.5, 6.5, 0
2138, 7.75, 6.5, 0
2139, 8, 6.5, 0
2140, 8.25, 6.5, 0
2141, 8.5, 6.5, 0
2142, 8.75, 6.5, 0
2143, 9, 6.5, 0
2144, 9.25, 6.5, 0
2145, 9.5, 6.5, 0
2146, 9.75, 6.5, 0
2147, 10, 6.5, 0
2148, 10.25, 6.5, 0
2149, 10.5, 6.5, 0
2150, 10.75, 6.5, 0
2151, 11, 6.5, 0
2152, 11.25, 6.5, 0
2153, 11.5, 6.5, 0
2154, 11.75, 6.5, 0
2155, 12, 6.5, 0
2156, 12.25, 6.5, 0
2157, 12.5, 6.5, 0
2158, 12.75, 6.5, 0
2159, 13, 6.5, 0
2160, 13.25, 6.5, 0
2161, 13.5, 6.5, 0
2162, 13.75, 6.5, 0
2163, 14, 6.5, 0
2164, 14.25, 6.5, 0
2165, 14.5, 6.5, 0
2166, 14.75, 6.5, 0
2167, 15, 6.5, 0
2168, 15.25, 6.5, 0
2169, 15.5, 6.5, 0
2170, 15.75, 6.5, 0
2171, 16, 6.5, 0
2172, 16.25, 6.5, 0
2173, 16.5, 6.5, 0
2174, 16.75, 6.5, 0
2175, 17, 6.5, 0
2176, 17.25, 6.5, 0
2177, 17.5, 6.5, 0
2178, 17.75, 6.5, 0
2179, 18, 6.5, 0
2180, 18.25, 6.5, 0
2181, 18.5, 6.5, 0
2182, 18.75, 6.5, 0
2183, 19, 6.5, 0
2184, 19.25, 6.5, 0
2185, 19.5, 6.5, 0
2186, 19.75, 6.5, 0
2187, 20, 6.5, 0
2188, 0, 6.75, 0
2189, 0.25, 6.75, 0
2190, 0.5, 6.75, 0
2191, 0.75, 6.75, 0
2192, 1, 6.75, 0
2193, 1.25, 6.75, 0
2194, 1.5, 6.75, 0
2195, 1.75, 6.75, 0
2196, 2, 6.75, 0
2197, 2.25, 6.75, 0
2198, 2.5, 6.75, 0
2199, 2.75, 6.75, 0
2200, 3, 6.75, 0
2201, 3.25, 6.75, 0
2202, 3.5, 6.75, 0
2203, 3.75, 6.75, 0
2204, 4, 6.75, 0
2205, 4.25, 6.75, 0
2206, 4.5, 6.75, 0
2207, 4.75, 6.75, 0
2208, 5, 6.75, 0
2209, 5.25, 6.75, 0
2210, 5.5, 6.75, 0
2211, 5.75, 6.75, 0
2212, 6, 6.75, 0
2213, 6.25, 6.75, 0
2214, 6.5, 6.75, 0
2215, 6.75, 6.75, 0
2216, 7, 6.75, 0
2217, 7.25, 6.75, 0
2218, 7.5, 6.75, 0
2219, 7.75, 6.75, 0
2220, 8, 6.75, 0
2221, 8.25, 6.75, 0
2222, 8.5, 6.75, 0
2223, 8.75, 6.75, 0
2224, 9, 6.75, 0
2225, 9.25, 6.75, 0
2226, 9.5, 6.75, 0
2227, 9.75, 6.75, 0
2228, 10, 6.75, 0
2229, 10.25, 6.75, 0
2230, 10.5, 6.75, 0
2231, 10.75, 6.75, 0
2232, 11, 6.75, 0
2233, 11.25, 6.75, 0
2234, 11.5, 6.75, 0
2235, 11.75, 6.75, 0
2236, 12, 6.75, 0
2237, 12.25, 6.75, 0
2238, 12.5, 6.75, 0
2239, 12.75, 6.75, 0
2240, 13, 6.75, 0
2241, 13.25, 6.75, 0
2242, 13.5, 6.75, 0
2243, 13.75, 6.75, 0
2244, 14, 6.75, 0
2245, 14.25, 6.75, 0
2246, 14.5, 6.75, 0
2247, 14.75, 6.75, 0
2248, 15, 6.75, 0
2249, 15.25, 6.75, 0
2250, 15.5, 6.75, 0
2251, 15.75, 6.75, 0
2252, 16, 6.75, 0
2253, 16.25, 6.75, 0
2254, 16.5, 6.75, 0
2255, 16.75, 6.75, 0
2256, 17, 6.75, 0
2257, 17.25, 6.75, 0
2258, 17.5, 6.75, 0
2259, 17.75, 6.75, 0
2260, 18, 6.75, 0
2261, 18.25, 6.75, 0
2262, 18.5, 6.75, 0
2263, 18.75, 6.75, 0
2264, 19, 6.75, 0
2265, 19.25, 6.75, 0
2266, 19.5, 6.75, 0
2267, 19.75, 6.75, 0
2268, 20, 6.75, 0
2269, 0, 7, 0
2270, 0.25, 7, 0
2271, 0.5, 7, 0
2272, 0.75, 7, 0
2273, 1, 7, 0
2274, 1.25, 7, 0
2275, 1.5, 7, 0
2276, 1.75, 7, 0
2277, 2, 7, 0
2278, 2.25, 7, 0
2279, 2.5, 7, 0
2280, 2.75, 7, 0
2281, 3, 7, 0
2282, 3.25, 7, 0
2283, 3.5, 7, 0
2284, 3.75, 7, 0
2285, 4, 7, 0
2286, 4.25, 7, 0
2287, 4.5, 7, 0
2288, 4.75, 7, 0
2289, 5, 7, 0
2290, 5.25, 7, 0
2291, 5.5, 7, 0
2292, 5.75, 7, 0
2293, 6, 7, 0
2294, 6.25, 7, 0
2295, 6.5, 7, 0
2296, 6.75, 7, 0
2297, 7, 7, 0
2298, 7.25, 7, 0
2299, 7.5, 7, 0
2300, 7.75, 7, 0
2301, 8, 7, 0
2302, 8.25, 7, 0
2303, 8.5, 7, 0
2304, 8.75, 7, 0
2305, 9, 7, 0
2306, 9.25, 7, 0
2307, 9.5, 7, 0
2308, 9.75, 7, 0
2309, 10, 7, 0
2310, 10.25, 7, 0
2311, 10.5, 7, 0
2312, 10.75, 7, 0
2313, 11, 7, 0
2314, 11.25, 7, 0
2315, 11.5, 7, 0
2316, 11.75, 7, 0
2317, 12, 7, 0
2318, 12.25, 7, 0
2319, 12.5, 7, 0
2320, 12.75, 7, 0
2321, 13, 7, 0
2322, 13.25, 7, 0
2323, 13.5, 7, 0
2324, 13.75, 7, 0
2325, 14, 7, 0
2326, 14.25, 7, 0
2327, 14.5, 7, 0
2328, 14.75, 7, 0
2329, 15, 7, 0
2330, 15.25, 7, 0
2331, 15.5, 7, 0
2332, 15.75, 7, 0
2333, 16, 7, 0
2334, 16.25, 7, 0
2335, 16.5, 7, 0
2336, 16.75, 7, 0
2337, 17, 7, 0
2338, 17.25, 7, 0
2339, 17.5, 7, 0
2340, 17.75, 7, 0
2341, 18, 7, 0
2342, 18.25, 7, 0
2343, 18.5, 7, 0
2344, 18.75, 7, 0
2345, 19, 7, 0
2346, 19.25, 7, 0
2347, 19.5, 7, 0
2348, 19.75, 7, 0
2349, 20, 7, 0
2350, 0, 7.25, 0
2351, 0.25, 7.25, 0
2352, 0.5, 7.25, 0
2353, 0.75, 7.25, 0
2354, 1, 7.25, 0
2355, 1.25, 7.25, 0
2356, 1.5, 7.25, 0
2357, 1.75, 7.25, 0
2358, 2, 7.25, 0
2359, 2.25, 7.25, 0
2360, 2.5, 7.25, 0
2361, 2.75, 7.25, 0
2362, 3, 7.25, 0
2363, 3.25, 7.25, 0
2364, 3.5, 7.25, 0
2365, 3.75, 7.25, 0
2366, 4, 7.25, 0
2367, 4.25, 7.25, 0
2368, 4.5, 7.25, 0
2369, 4.75, 7.25, 0
2370, 5, 7.25, 0
2371, 5.25, 7.25, 0
2372, 5.5, 7.25, 0
2373, 5.75, 7.25, 0
2374, 6, 7.25, 0
2375, 6.25, 7.25, 0
2376, 6.5, 7.25, 0
2377, 6.75, 7.25, 0
2378, 7, 7.25, 0
2379, 7.25, 7.25, 0
2380, 7.5, 7.25, 0
2381, 7.75, 7.25, 0
2382, 8, 7.25, 0
2383, 8.25, 7.25, 0
2384, 8.5, 7.25, 0
2385, 8.75, 7.25, 0
2386, 9, 7.25, 0
2387, 9.25, 7.25, 0
2388, 9.5, 7.25, 0
2389, 9.75, 7.25, 0
2390, 10, 7.25, 0
2391, 10.25, 7.25, 0
2392, 10.5, 7.25, 0
2393, 10.75, 7.25, 0
2394, 11, 7.25, 0
2395, 11.25, 7.25, 0
2396, 11.5, 7.25, 0
2397, 11.75, 7.25, 0
2398, 12, 7.25, 0
2399, 12.25, 7.25, 0
2400, 12.5, 7.25, 0
2401, 12.75, 7.25, 0
2402, 13, 7.25, 0
2403, 13.25, 7.25, 0
2404, 13.5, 7.25, 0
2405, 13.75, 7.25, 0
2406, 14, 7.25, 0
2407, 14.25, 7.25, 0
2408, 14.5, 7.25, 0
2409, 14.75, 7.25, 0
2410, 15, 7.25, 0
2411, 15.25, 7.25, 0
2412, 15.5, 7.25, 0
2413, 15.75, 7.25, 0
2414, 16, 7.25, 0
2415, 16.25, 7.25, 0
2416, 16.5, 7.25, 0
2417, 16.75, 7.25, 0
2418, 17, 7.25, 0
2419, 17.25, 7.25, 0
2420, 17.5, 7.25, 0
2421, 17.75, 7.25, 0
2422, 18, 7.25, 0
2423, 18.25, 7.25, 0
2424, 18.5, 7.25, 0
2425, 18.75, 7.25, 0
2426, 19, 7.25, 0
2427, 19.25, 7.25, 0
2428, 19.5, 7.25, 0
2429, 19.75, 7.25, 0
2430, 20, 7.25, 0
2431, 0, 7.5, 0
2432, 0.25, 7.5, 0
2433, 0.5, 7.5, 0
2434, 0.75, 7.5, 0
2435, 1, 7.5, 0
2436, 1.25, 7.5, 0
2437, 1.5, 7.5, 0
2438, 1.75, 7.5, 0
2439, 2, 7.5, 0
2440, 2.25, 7.5, 0
2441, 2.5, 7.5, 0
2442, 2.75, 7.5, 0
2443, 3, 7.5, 0
2444, 3.25, 7.5, 0
2445, 3.5, 7.5, 0
2446, 3.75, 7.5, 0
2447, 4, 7.5, 0
2448, 4.25, 7.5, 0
2449, 4.5, 7.5, 0
2450, 4.75, 7.5, 0
2451, 5, 7.5, 0
2452, 5.25, 7.5, 0
2453, 5.5, 7.5, 0
2454, 5.75, 7.5, 0
2455, 6, 7.5, 0
2456, 6.25, 7.5, 0
2457, 6.5, 7.5, 0
2458, 6.75, 7.5, 0
2459, 7, 7.5, 0
2460, 7.25, 7.5, 0
2461, 7.5, 7.5, 0
2462, 7.75, 7.5, 0
2463, 8, 7.5, 0
2464, 8.25, 7.5, 0
2465, 8.5, 7.5, 0
2466, 8.75, 7.5, 0
2467, 9, 7.5, 0
2468, 9.25, 7.5, 0
2469, 9.5, 7.5, 0
2470, 9.75, 7.5, 0
2471, 10, 7.5, 0
2472, 10.25, 7.5, 0
2473, 10.5, 7.5, 0
2474, 10.75, 7.5, 0
2475, 11, 7.5, 0
2476, 11.25, 7.5, 0
2477, 11.5, 7.5, 0
2478, 11.75, 7.5, 0
2479, 12, 7.5, 0
2480, 12.25, 7.5, 0
2481, 12.5, 7.5, 0
2482, 12.75, 7.5, 0
2483, 13, 7.5, 0
2484, 13.25, 7.5, 0
2485, 13.5, 7.5, 0
2486, 13.75, 7.5, 0
2487, 14, 7.5, 0
2488, 14.25, 7.5, 0
2489, 14.5, 7.5, 0
2490, 14.75, 7.5, 0
2491, 15, 7.5, 0
2492, 15.25, 7.5, 0
2493, 15.5, 7.5, 0
2494, 15.75, 7.5, 0
2495, 16, 7.5, 0
2496, 16.25, 7.5, 0
2497, 16.5, 7.5, 0
2498, 16.75, 7.5, 0
2499, 17, 7.5, 0
2500, 17.25, 7.5, 0
2501, 17.5, 7.5, 0
2502, 17.75, 7.5, 0
2503, 18, 7.5, 0
2504, 18.25, 7.5, 0
2505, 18.5, 7.5, 0
2506, 18.75, 7.5, 0
2507, 19, 7.5, 0
2508, 19.25, 7.5, 0
2509, 19.5, 7.5, 0
2510, 19.75, 7.5, 0
2511, 20, 7.5, 0
2512, 0, 7.75, 0
2513, 0.25, 7.75, 0
2514, 0.5, 7.75, 0
2515, 0.75, 7.75, 0
2516, 1, 7.75, 0
2517, 1.25, 7.75, 0
2518, 1.5, 7.75, 0
2519, 1.75, 7.75, 0
2520, 2, 7.75, 0
2521, 2.25, 7.75, 0
2522, 2.5, 7.75, 0
2523, 2.75, 7.75, 0
2524, 3, 7.75, 0
2525, 3.25, 7.75, 0
2526, 3.5, 7.75, 0
2527, 3.75, 7.75, 0
2528, 4, 7.75, 0
2529, 4.25, 7.75, 0
2530, 4.5, 7.75, 0
2531, 4.75, 7.75, 0
2532, 5, 7.75, 0
2533, 5.25, 7.75, 0
2534, 5.5, 7.75, 0
2535, 5.75, 7.75, 0
2536, 6, 7.75, 0
2537, 6.25, 7.75, 0
2538, 6.5, 7.75, 0
2539, 6.75, 7.75, 0
2540, 7, 7.75, 0
2541, 7.25, 7.75, 0
2542, 7.5, 7.75, 0
2543, 7.75, 7.75, 0
2544, 8, 7.75, 0
2545, 8.25, 7.75, 0
2546, 8.5, 7.75, 0
2547, 8.75, 7.75, 0
2548, 9, 7.75, 0
2549, 9.25, 7.75, 0
2550, 9.5, 7.75, 0
2551, 9.75, 7.75, 0
2552, 10, 7.75, 0
2553, 10.25, 7.75, 0
2554, 10.5, 7.75, 0
2555, 10.75, 7.75, 0
2556, 11, 7.75, 0
2557, 11.25, 7.75, 0
2558, 11.5, 7.75, 0
2559, 11.75, 7.75, 0
2560, 12, 7.75, 0
2561, 12.25, 7.75, 0
2562, 12.5, 7.75, 0
2563, 12.75, 7.75, 0
2564, 13, 7.75, 0
2565, 13.25, 7.75, 0
2566, 13.5, 7.75, 0
2567, 13.75, 7.75, 0
2568, 14, 7.75, 0
2569, 14.25, 7.75, 0
2570, 14.5, 7.75, 0
2571, 14.75, 7.75, 0
2572, 15, 7.75, 0
2573, 15.25, 7.75, 0
2574, 15.5, 7.75, 0
2575, 15.75, 7.75, 0
2576, 16, 7.75, 0
2577, 16.25, 7.75, 0
2578, 16.5, 7.75, 0
2579, 16.75, 7.75, 0
2580, 17, 7.75, 0
2581, 17.25, 7.75, 0
2582, 17.5, 7.75, 0
2583, 17.75, 7.75, 0
2584, 18, 7.75, 0
2585, 18.25, 7.75, 0
2586, 18.5, 7.75, 0
2587, 18.75, 7.75, 0
2588, 19, 7.75, 0
2589, 19.25, 7.75, 0
2590, 19.5, 7.75, 0
2591, 19.75, 7.75, 0
2592, 20, 7.75, 0
2593, 0, 8, 0
2594, 0.25, 8, 0
2595, 0.5, 8, 0
2596, 0.75, 8, 0
2597, 1, 8, 0
2598, 1.25, 8, 0
2599, 1.5, 8, 0
2600, 1.75, 8, 0
2601, 2, 8, 0
2602, 2.25, 8, 0
2603, 2.5, 8, 0
2604, 2.75, 8, 0
2605, 3, 8, 0
2606, 3.25, 8, 0
2607, 3.5, 8, 0
2608, 3.75, 8, 0
2609, 4, 8, 0
2610, 4.25, 8, 0
2611, 4.5, 8, 0
2612, 4.75, 8, 0
2613, 5, 8, 0
2614, 5.25, 8, 0
2615, 5.5, 8, 0
2616, 5.75, 8, 0
2617, 6, 8, 0
2618, 6.25, 8, 0
2619, 6.5, 8, 0
2620, 6.75, 8, 0
2621, 7, 8, 0
2622, 7.25, 8, 0
2623, 7.5, 8, 0
2624, 7.75, 8, 0
2625, 8, 8, 0
2626, 8.25, 8, 0
2627, 8.5, 8, 0
2628, 8.75, 8, 0
2629, 9, 8, 0
2630, 9.25, 8, 0
2631, 9.5, 8, 0
2632, 9.75, 8, 0
2633, 10, 8, 0
2634, 10.25, 8, 0
2635, 10.5, 8, 0
2636, 10.75, 8, 0
2637, 11, 8, 0
2638, 11.25, 8, 0
2639, 11.5, 8, 0
2640, 11.75, 8, 0
2641, 12, 8, 0
2642, 12.25, 8, 0
2643, 12.5, 8, 0
2644, 12.75, 8, 0
2645, 13, 8, 0
2646, 13.25, 8, 0
2647, 13.5, 8, 0
2648, 13.75, 8, 0
2649, 14, 8, 0
2650, 14.25, 8, 0
2651, 14.5, 8, 0
2652, 14.75, 8, 0
2653, 15, 8, 0
2654, 15.25, 8, 0
2655, 15.5, 8, 0
2656, 15.75, 8, 0
2657, 16, 8, 0
2658, 16.25, 8, 0
2659, 16.5, 8, 0
2660, 16.75, 8, 0
2661, 17, 8, 0
2662, 17.25, 8, 0
2663, 17.5, 8, 0
2664, 17.75, 8, 0
2665, 18, 8, 0
2666, 18.25, 8, 0
2667, 18.5, 8, 0
2668, 18.75, 8, 0
2669, 19, 8, 0
2670, 19.25, 8, 0
2671, 19.5, 8, 0
2672, 19.75, 8, 0
2673, 20, 8, 0
2674, 0, 8.25, 0
2675, 0.25, 8.25, 0
2676, 0.5, 8.25, 0
2677, 0.75, 8.25, 0
2678, 1, 8.25, 0
2679, 1.25, 8.25, 0
2680, 1.5, 8.25, 0
2681, 1.75, 8.25, 0
2682, 2, 8.25, 0
2683, 2.25, 8.25, 0
2684, 2.5, 8.25, 0
2685, 2.75, 8.25, 0
2686, 3, 8.25, 0
2687, 3.25, 8.25, 0
2688, 3.5, 8.25, 0
2689, 3.75, 8.25, 0
2690, 4, 8.25, 0
2691, 4.25, 8.25, 0
2692, 4.5, 8.25, 0
2693, 4.75, 8.25, 0
2694, 5, 8.25, 0
2695, 5.25, 8.25, 0
2696, 5.5, 8.25, 0
2697, 5.75, 8.25, 0
2698, 6, 8.25, 0
2699, 6.25, 8.25, 0
2700, 6.5, 8.25, 0
2701, 6.75, 8.25, 0
2702, 7, 8.25, 0
2703, 7.25, 8.25, 0
2704, 7.5, 8.25, 0
2705, 7.75, 8.25, 0
2706, 8, 8.25, 0
2707, 8.25, 8.25, 0
2708, 8.5, 8.25, 0
2709, 8.75, 8.25, 0
2710, 9, 8.25, 0
2711, 9.25, 8.25, 0
2712, 9.5, 8.25, 0
2713, 9.75, 8.25, 0
2714, 10, 8.25, 0
2715, 10.25, 8.25, 0
2716, 10.5, 8.25, 0
2717, 10.75, 8.25, 0
2718, 11, 8.25, 0
2719, 11.25, 8.25, 0
2720, 11.5, 8.25, 0
2721, 11.75, 8.25, 0
2722, 12, 8.25, 0
2723, 12.25, 8.25, 0
2724, 12.5, 8.25, 0
2725, 12.75, 8.25, 0
2726, 13, 8.25, 0
2727, 13.25, 8.25, 0
2728, 13.5, 8.25, 0
2729, 13.75, 8.25, 0
2730, 14, 8.25, 0
2731, 14.25, 8.25, 0
2732, 14.5, 8.25, 0
2733, 14.75, 8.25, 0
2734, 15, 8.25, 0
2735, 15.25, 8.25, 0
2736, 15.5, 8.25, 0
2737, 15.75, 8.25, 0
2738, 16, 8.25, 0
2739, 16.25, 8.25, 0
2740, 16.5, 8.25, 0
2741, 16.75, 8.25, 0
2742, 17, 8.25, 0
2743, 17.25, 8.25, 0
2744, 17.5, 8.25, 0
2745, 17.75, 8.25, 0
2746, 18, 8.25, 0
2747, 18.25, 8.25, 0
2748, 18.5, 8.25, 0
2749, 18.75, 8.25, 0
2750, 19, 8.25, 0
2751, 19.25, 8.25, 0
2752, 19.5, 8.25, 0
2753, 19.75, 8.25, 0
2754, 20, 8.25, 0
2755, 0, 8.5, 0
2756, 0.25, 8.5, 0
2757, 0.5, 8.5, 0
2758, 0.75, 8.5, 0
2759, 1, 8.5, 0
2760, 1.25, 8.5, 0
2761, 1.5, 8.5, 0
2762, 1.75, 8.5, 0
2763, 2, 8.5, 0
2764, 2.25, 8.5, 0
2765, 2.5, 8.5, 0
2766, 2.75, 8.5, 0
2767, 3, 8.5, 0
2768, 3.25, 8.5, 0
2769, 3.5, 8.5, 0
2770, 3.75, 8.5, 0
2771, 4, 8.5, 0
2772, 4.25, 8.5, 0
2773, 4.5, 8.5, 0
2774, 4.75, 8.5, 0
2775, 5, 8.5, 0
2776, 5.25, 8.5, 0
2777, 5.5, 8.5, 0
2778, 5.75, 8.5, 0
2779, 6, 8.5, 0
2780, 6.25, 8.5, 0
2781, 6.5, 8.5, 0
2782, 6.75, 8.5, 0
2783, 7, 8.5, 0
2784, 7.25, 8.5, 0
2785, 7.5, 8.5, 0
2786, 7.75, 8.5, 0
2787, 8, 8.5, 0
2788, 8.25, 8.5, 0
2789, 8.5, 8.5, 0
2790, 8.75, 8.5, 0
2791, 9, 8.5, 0
2792, 9.25, 8.5, 0
2793, 9.5, 8.5, 0
2794, 9.75, 8.5, 0
2795, 10, 8.5, 0
2796, 10.25, 8.5, 0
2797, 10.5, 8.5, 0
2798, 10.75, 8.5, 0
2799, 11, 8.5, 0
2800, 11.25, 8.5, 0
2801, 11.5, 8.5, 0
2802, 11.75, 8.5, 0
2803, 12, 8.5, 0
2804, 12.25, 8.5, 0
2805, 12.5, 8.5, 0
2806, 12.75, 8.5, 0
2807, 13, 8.5, 0
2808, 13.25, 8.5, 0
2809, 13.5, 8.5, 0
2810, 13.75, 8.5, 0
2811, 14, 8.5, 0
2812, 14.25, 8.5, 0
2813, 14.5, 8.5, 0
2814, 14.75, 8.5, 0
2815, 15, 8.5, 0
2816, 15.25, 8.5, 0
2817, 15.5, 8.5, 0
2818, 15.75, 8.5, 0
2819, 16, 8.5, 0
2820, 16.25, 8.5, 0
2821, 16.5, 8.5, 0
2822, 16.75, 8.5, 0
2823, 17, 8.5, 0
2824, 17.25, 8.5, 0
2825, 17.5, 8.5, 0
2826, 17.75, 8.5, 0
2827, 18, 8.5, 0
2828, 18.25, 8.5, 0
2829, 18.5, 8.5, 0
2830, 18.75, 8.5, 0
2831, 19, 8.5, 0
2832, 19.25, 8.5, 0
2833, 19.5, 8.5, 0
2834, 19.75, 8.5, 0
2835, 20, 8.5, 0
2836, 0, 8.75, 0
2837, 0.25, 8.75, 0
2838, 0.5, 8.75, 0
2839, 0.75, 8.75, 0
2840, 1, 8.75, 0
2841, 1.25, 8.75, 0
2842, 1.5, 8.75, 0
2843, 1.75, 8.75, 0
2844, 2, 8.75, 0
2845, 2.25, 8.75, 0
2846, 2.5, 8.75, 0
2847, 2.75, 8.75, 0
2848, 3, 8.75, 0
2849, 3.25, 8.75, 0
2850, 3.5, 8.75, 0
2851, 3.75, 8.75, 0
2852, 4, 8.75, 0
2853, 4.25, 8.75, 0
2854, 4.5, 8.75, 0
2855, 4.75, 8.75, 0
2856, 5, 8.75, 0
2857, 5.25, 8.75, 0
2858, 5.5, 8.75, 0
2859, 5.75, 8.75, 0
2860, 6, 8.75, 0
2861, 6.25, 8.75, 0
2862, 6.5, 8.75, 0
2863, 6.75, 8.75, 0
2864, 7, 8.75, 0
2865, 7.25, 8.75, 0
2866, 7.5, 8.75, 0
2867, 7.75, 8.75, 0
2868, 8, 8.75, 0
2869, 8.25, 8.75, 0
2870, 8.5, 8.75, 0
2871, 8.75, 8.75, 0
2872, 9, 8.75, 0
2873, 9.25, 8.75, 0
2874, 9.5, 8.75, 0
2875, 9.75, 8.75, 0
2876, 10, 8.75, 0
2877, 10.25, 8.75, 0
2878, 10.5, 8.75, 0
2879, 10.75, 8.75, 0
2880, 11, 8.75, 0
2881, 11.25, 8.75, 0
2882, 11.5, 8.75, 0
2883, 11.75, 8.75, 0
2884, 12, 8.75, 0
2885, 12.25, 8.75, 0
2886, 12.5, 8.75, 0
2887, 12.75, 8.75, 0
2888, 13, 8.75, 0
2889, 13.25, 8.75, 0
2890, 13.5, 8.75, 0
2891, 13.75, 8.75, 0
2892, 14, 8.75, 0
2893, 14.25, 8.75, 0
2894, 14.5, 8.75, 0
2895, 14.75, 8.75, 0
2896, 15, 8.75, 0
2897, 15.25, 8.75, 0
2898, 15.5, 8.75, 0
2899, 15.75, 8.75, 0
2900, 16, 8.75, 0
2901, 16.25, 8.75, 0
2902, 16.5, 8.75, 0
2903, 16.75, 8.75, 0
2904, 17, 8.75, 0
2905, 17.25, 8.75, 0
2906, 17.5, 8.75, 0
2907, 17.75, 8.75, 0
2908, 18, 8.75, 0
2909, 18.25, 8.75, 0
2910, 18.5, 8.75, 0
2911, 18.75, 8.75, 0
2912, 19, 8.75, 0
2913, 19.25, 8.75, 0
2914, 19.5, 8.75, 0
2915, 19.75, 8.75, 0
2916, 20, 8.75, 0
2917, 0, 9, 0
2918, 0.25, 9, 0
2919, 0.5, 9, 0
2920, 0.75, 9, 0
2921, 1, 9, 0
2922, 1.25, 9, 0
2923, 1.5, 9, 0
2924, 1.75, 9, 0
2925, 2, 9, 0
2926, 2.25, 9, 0
2927, 2.5, 9, 0
2928, 2.75, 9, 0
2929, 3, 9, 0
2930, 3.25, 9, 0
2931, 3.5, 9, 0
2932, 3.75, 9, 0
2933, 4, 9, 0
2934, 4.25, 9, 0
2935, 4.5, 9, 0
2936, 4.75, 9, 0
2937, 5, 9, 0
2938, 5.25, 9, 0
2939, 5.5, 9, 0
2940, 5.75, 9, 0
2941, 6, 9, 0
2942, 6.25, 9, 0
2943, 6.5, 9, 0
2944, 6.75, 9, 0
2945, 7, 9, 0
2946, 7.25, 9, 0
2947, 7.5, 9, 0
2948, 7.75, 9, 0
2949, 8, 9, 0
2950, 8.25, 9, 0
2951, 8.5, 9, 0
2952, 8.75, 9, 0
2953, 9, 9, 0
2954, 9.25, 9, 0
2955, 9.5, 9, 0
2956, 9.75, 9, 0
2957, 10, 9, 0
2958, 10.25, 9, 0
2959, 10.5, 9, 0
2960, 10.75, 9, 0
2961, 11, 9, 0
2962, 11.25, 9, 0
2963, 11.5, 9, 0
2964, 11.75, 9, 0
2965, 12, 9, 0
2966, 12.25, 9, 0
2967, 12.5, 9, 0
2968, 12.75, 9, 0
2969, 13, 9, 0
2970, 13.25, 9, 0
2971, 13.5, 9, 0
2972, 13.75, 9, 0
2973, 14, 9, 0
2974, 14.25, 9, 0
2975, 14.5, 9, 0
2976, 14.75, 9, 0
2977, 15, 9, 0
2978, 15.25, 9, 0
2979, 15.5, 9, 0
2980, 15.75, 9, 0
2981, 16, 9, 0
2982, 16.25, 9, 0
2983, 16.5, 9, 0
2984, 16.75, 9, 0
2985, 17, 9, 0
2986, 17.25, 9, 0
2987, 17.5, 9, 0
2988, 17.75, 9, 0
2989, 18, 9, 0
2990, 18.25, 9, 0
2991, 18.5, 9, 0
2992, 18.75, 9, 0
2993, 19, 9, 0
2994, 19.25, 9, 0
2995, 19.5, 9, 0
2996, 19.75, 9, 0
2997, 20, 9, 0
2998, 0, 9.25, 0
2999, 0.25, 9.25, 0
3000, 0.5, 9.25, 0
3001, 0.75, 9.25, 0
3002, 1, 9.25, 0
3003, 1.25, 9.25, 0
3004, 1.5, 9.25, 0
3005, 1.75, 9.25, 0
3006, 2, 9.25, 0
3007, 2.25, 9.25, 0
3008, 2.5, 9.25, 0
3009, 2.75, 9.25, 0
3010, 3, 9.25, 0
3011, 3.25, 9.25, 0
3012, 3.5, 9.25, 0
3013, 3.75, 9.25, 0
3014, 4, 9.25, 0
3015, 4.25, 9.25, 0
3016, 4.5, 9.25, 0
3017, 4.75, 9.25, 0
3018, 5, 9.25, 0
3019, 5.25, 9.25, 0
3020, 5.5, 9.25, 0
3021, 5.75, 9.25, 0
3022, 6, 9.25, 0
3023, 6.25, 9.25, 0
3024, 6.5, 9.25, 0
3025, 6.75, 9.25, 0
3026, 7, 9.25, 0
3027, 7.25, 9.25, 0
3028, 7.5, 9.25, 0
3029, 7.75, 9.25, 0
3030, 8, 9.25, 0
3031, 8.25, 9.25, 0
3032, 8.5, 9.25, 0
3033, 8.75, 9.25, 0
3034, 9, 9.25, 0
3035, 9.25, 9.25, 0
3036, 9.5, 9.25, 0
3037, 9.75, 9.25, 0
3038, 10, 9.25, 0
3039, 10.25, 9.25, 0
3040, 10.5, 9.25, 0
3041, 10.75, 9.25, 0
3042, 11, 9.25, 0
3043, 11.25, 9.25, 0
3044, 11.5, 9.25, 0
3045, 11.75, 9.25, 0
3046, 12, 9.25, 0
3047, 12.25, 9.25, 0
3048, 12.5, 9.25, 0
3049, 12.75, 9.25, 0
3050, 13, 9.25, 0
3051, 13.25, 9.25, 0
3052, 13.5, 9.25, 0
3053, 13.75, 9.25, 0
3054, 14, 9.25, 0
3055, 14.25, 9.25, 0
3056, 14.5, 9.25, 0
3057, 14.75, 9.25, 0
3058, 15, 9.25, 0
3059, 15.25, 9.25, 0
3060, 15.5, 9.25, 0
3061, 15.75, 9.25, 0
3062, 16, 9.25, 0
3063, 16.25, 9.25, 0
3064, 16.5, 9.25, 0
3065, 16.75, 9.25, 0
3066, 17, 9.25, 0
3067, 17.25, 9.25, 0
3068, 17.5, 9.25, 0
3069, 17.75, 9.25, 0
3070, 18, 9.25, 0
3071, 18.25, 9.25, 0
3072, 18.5, 9.25, 0
3073, 18.75, 9.25, 0
3074, 19, 9.25, 0
3075, 19.25, 9.25, 0
3076, 19.5, 9.25, 0
3077, 19.75, 9.25, 0
3078, 20, 9.25, 0
3079, 0, 9.5, 0
3080, 0.25, 9.5, 0
3081, 0.5, 9.5, 0
3082, 0.75, 9.5, 0
3083, 1, 9.5, 0
3084, 1.25, 9.5, 0
3085, 1.5, 9.5, 0
3086, 1.75, 9.5, 0
3087, 2, 9.5, 0
3088, 2.25, 9.5, 0
3089, 2.5, 9.5, 0
3090, 2.75, 9.5, 0
3091, 3, 9.5, 0
3092, 3.25, 9.5, 0
3093, 3.5, 9.5, 0
3094, 3.75, 9.5, 0
3095, 4, 9.5, 0
3096, 4.25, 9.5, 0
3097, 4.5, 9.5, 0
3098, 4.75, 9.5, 0
3099, 5, 9.5, 0
3100, 5.25, 9.5, 0
3101, 5.5, 9.5, 0
3102, 5.75, 9.5, 0
3103, 6, 9.5, 0
3104, 6.25, 9.5, 0
3105, 6.5, 9.5, 0
3106, 6.75, 9.5, 0
3107, 7, 9.5, 0
3108, 7.25, 9.5, 0
3109, 7.5, 9.5, 0
3110, 7.75, 9.5, 0
3111, 8, 9.5, 0
3112, 8.25, 9.5, 0
3113, 8.5, 9.5, 0
3114, 8.75, 9.5, 0
3115, 9, 9.5, 0
3116, 9.25, 9.5, 0
3117, 9.5, 9.5, 0
3118, 9.75, 9.5, 0
3119, 10, 9.5, 0
3120, 10.25, 9.5, 0
3121, 10.5, 9.5, 0
3122, 10.75, 9.5, 0
3123, 11, 9.5, 0
3124, 11.25, 9.5, 0
3125, 11.5, 9.5, 0
3126, 11.75, 9.5, 0
3127, 12, 9.5, 0
3128, 12.25, 9.5, 0
3129, 12.5, 9.5, 0
3130, 12.75, 9.5, 0
3131, 13, 9.5, 0
3132, 13.25, 9.5, 0
3133, 13.5, 9.5, 0
3134, 13.75, 9.5, 0
3135, 14, 9.5, 0
3136, 14.25, 9.5, 0
3137, 14.5, 9.5, 0
3138, 14.75, 9.5, 0
3139, 15, 9.5, 0
3140, 15.25, 9.5, 0
3141, 15.5, 9.5, 0
3142, 15.75, 9.5, 0
3143, 16, 9.5, 0
3144, 16.25, 9.5, 0
3145, 16.5, 9.5, 0
3146, 16.75, 9.5, 0
3147, 17, 9.5, 0
3148, 17.25, 9.5, 0
3149, 17.5, 9.5, 0
3150, 17.75, 9.5, 0
3151, 18, 9.5, 0
3152, 18.25, 9.5, 0
3153, 18.5, 9.5, 0
3154, 18.75, 9.5, 0
3155, 19, 9.5, 0
3156, 19.25, 9.5, 0
3157, 19.5, 9.5, 0
3158, 19.75, 9.5, 0
3159, 20, 9.5, 0
3160, 0, 9.75, 0
3161, 0.25, 9.75, 0
3162, 0.5, 9.75, 0
3163, 0.75, 9.75, 0
3164, 1, 9.75, 0
3165, 1.25, 9.75, 0
3166, 1.5, 9.75, 0
3167, 1.75, 9.75, 0
3168, 2, 9.75, 0
3169, 2.25, 9.75, 0
3170, 2.5, 9.75, 0
3171, 2.75, 9.75, 0
3172, 3, 9.75, 0
3173, 3.25, 9.75, 0
3174, 3.5, 9.75, 0
3175, 3.75, 9.75, 0
3176, 4, 9.75, 0
3177, 4.25, 9.75, 0
3178, 4.5, 9.75, 0
3179, 4.75, 9.75, 0
3180, 5, 9.75, 0
3181, 5.25, 9.75, 0
3182, 5.5, 9.75, 0
3183, 5.75, 9.75, 0
3184, 6, 9.75, 0
3185, 6.25, 9.75, 0
3186, 6.5, 9.75, 0
3187, 6.75, 9.75, 0
3188, 7, 9.75, 0
3189, 7.25, 9.75, 0
3190, 7.5, 9.75, 0
3191, 7.75, 9.75, 0
3192, 8, 9.75, 0
3193, 8.25, 9.75, 0
3194, 8.5, 9.75, 0
3195, 8.75, 9.75, 0
3196, 9, 9.75, 0
3197, 9.25, 9.75, 0
3198, 9.5, 9.75, 0
3199, 9.75, 9.75, 0
3200, 10, 9.75, 0
3201, 10.25, 9.75, 0
3202, 10.5, 9.75, 0
3203, 10.75, 9.75, 0
3204, 11, 9.75, 0
3205, 11.25, 9.75, 0
3206, 11.5, 9.75, 0
3207, 11.75, 9.75, 0
3208, 12, 9.75, 0
3209, 12.25, 9.75, 0
3210, 12.5, 9.75, 0
3211, 12.75, 9.75, 0
3212, 13, 9.75, 0
3213, 13.25, 9.75, 0
3214, 13.5, 9.75, 0
3215, 13.75, 9.75, 0
3216, 14, 9.75, 0
3217, 14.25, 9.75, 0
3218, 14.5, 9.75, 0
3219, 14.75, 9.75, 0
3220, 15, 9.75, 0
3221, 15.25, 9.75, 0
3222, 15.5, 9.75, 0
3223, 15.75, 9.75, 0
3224, 16, 9.75, 0
3225, 16.25, 9.75, 0
3226, 16.5, 9.75, 0
3227, 16.75, 9.75, 0
3228, 17, 9.75, 0
3229, 17.25, 9.75, 0
3230, 17.5, 9.75, 0
3231, 17.75, 9.75, 0
3232, 18, 9.75, 0
3233, 18.25, 9.75, 0
3234, 18.5, 9.75, 0
3235, 18.75, 9.75, 0
3236, 19, 9.75, 0
3237, 19.25, 9.75, 0
3238, 19.5, 9.75, 0
3239, 19.75, 9.75, 0
3240, 20, 9.75, 0
3241, 0, 10, 0
3242, 0.25, 10, 0
3243, 0.5, 10, 0
3244, 0.75, 10, 0
3245, 1, 10, 0
3246, 1.25, 10, 0
3247, 1.5, 10, 0
3248, 1.75, 10, 0
3249, 2, 10, 0
3250, 2.25, 10, 0
3251, 2.5, 10, 0
3252, 2.75, 10, 0
3253, 3, 10, 0
3254, 3.25, 10, 0
3255, 3.5, 10, 0
3256, 3.75, 10, 0
3257, 4, 10, 0
3258, 4.25, 10, 0
3259, 4.5, 10, 0
3260, 4.75, 10, 0
3261, 5, 10, 0
3262, 5.25, 10, 0
3263, 5.5, 10, 0
3264, 5.75, 10, 0
3265, 6, 10, 0
3266, 6.25, 10, 0
3267, 6.5, 10, 0
3268, 6.75, 10, 0
3269, 7, 10, 0
3270, 7.25, 10, 0
3271, 7.5, 10, 0
3272, 7.75, 10, 0
3273, 8, 10, 0
3274, 8.25, 10, 0
3275, 8.5, 10, 0
3276, 8.75, 10, 0
3277, 9, 10, 0
3278, 9.25, 10, 0
3279, 9.5, 10, 0
3280, 9.75, 10, 0
3281, 10, 10, 0
3282, 10.25, 10, 0
3283, 10.5, 10, 0
3284, 10.75, 10, 0
3285, 11, 10, 0
3286, 11.25, 10, 0
3287, 11.5, 10, 0
3288, 11.75, 10, 0
3289, 12, 10, 0
3290, 12.25, 10, 0
3291, 12.5, 10, 0
3292, 12.75, 10, 0
3293, 13, 10, 0
3294, 13.25, 10, 0
3295, 13.5, 10, 0
3296, 13.75, 10, 0
3297, 14, 10, 0
3298, 14.25, 10, 0
3299, 14.5, 10, 0
3300, 14.75, 10, 0
3301, 15, 10, 0
3302, 15.25, 10, 0
3303, 15.5, 10, 0
3304, 15.75, 10, 0
3305, 16, 10, 0
3306, 16.25, 10, 0
3307, 16.5, 10, 0
3308, 16.75, 10, 0
3309, 17, 10, 0
3310, 17.25, 10, 0
3311, 17.5, 10, 0
3312, 17.75, 10, 0
3313, 18, 10, 0
3314, 18.25, 10, 0
3315, 18.5, 10, 0
3316, 18.75, 10, 0
3317, 19, 10, 0
3318, 19.25, 10, 0
3319, 19.5, 10, 0
3320, 19.75, 10, 0
3321, 20, 10, 0
3322, 0, 0, 1
3323, 0.25, 0, 1
3324, 0.5, 0, 1
3325, 0.75, 0, 1
3326, 1, 0, 1
3327, 1.25, 0, 1
3328, 1.5, 0, 1
3329, 1.75, 0, 1
3330, 2, 0, 1
3331, 2.25, 0, 1
3332, 2.5, 0, 1
3333, 2.75, 0, 1
3334, 3, 0, 1
3335, 3.25, 0, 1
3336, 3.5, 0, 1
3337, 3.75, 0, 1
3338, 4, 0, 1
3339, 4.25, 0, 1
3340, 4.5, 0, 1
3341, 4.75, 0, 1
3342, 5, 0, 1
3343, 5.25, 0, 1
3344, 5.5, 0, 1
3345, 5.75, 0, 1
3346, 6, 0, 1
3347, 6.25, 0, 1
3348, 6.5, 0, 1
3349, 6.75, 0, 1
3350, 7, 0, 1
3351, 7.25, 0, 1
3352, 7.5, 0, 1
3353, 7.75, 0, 1
3354, 8, 0, 1
3355, 8.25, 0, 1
3356, 8.5, 0, 1
3357, 8.75, 0, 1
3358, 9, 0, 1
3359, 9.25, 0, 1
3360, 9.5, 0, 1
3361, 9.75, 0, 1
3362, 10, 0, 1
3363, 10.25, 0, 1
3364, 10.5, 0, 1
3365, 10.75, 0, 1
3366, 11, 0, 1
3367, 11.25, 0, 1
3368, 11.5, 0, 1
3369, 11.75, 0, 1
3370, 12, 0, 1
3371, 12.25, 0, 1
3372, 12.5, 0, 1
3373, 12.75, 0, 1
3374, 13, 0, 1
3375, 13.25, 0, 1
3376, 13.5, 0, 1
3377, 13.75, 0, 1
3378, 14, 0, 1
3379, 14.25, 0, 1
3380, 14.5, 0, 1
3381, 14.75, 0, 1
3382, 15, 0, 1
3383, 15.25, 0, 1
3384, 15.5, 0, 1
3385, 15.75, 0, 1
3386, 16, 0, 1
3387, 16.25, 0, 1
3388, 16.5, 0, 1
3389, 16.75, 0, 1
3390, 17, 0, 1
3391, 17.25, 0, 1
3392, 17.5, 0, 1
3393, 17.75, 0, 1
3394, 18, 0, 1
3395, 18.25, 0, 1
3396, 18.5, 0, 1
3397, 18.75, 0, 1
3398, 19, 0, 1
3399, 19.25, 0, 1
3400, 19.5, 0, 1
3401, 19.75, 0, 1
3402, 20, 0, 1
3403, 0, 0.25, 1
3404, 0.25, 0.25, 1
3405, 0.5, 0.25, 1
3406, 0.75, 0.25, 1
3407, 1, 0.25, 1
3408, 1.25, 0.25, 1
3409, 1.5, 0.25, 1
3410, 1.75, 0.25, 1
3411, 2, 0.25, 1
3412, 2.25, 0.25, 1
3413, 2.5, 0.25, 1
3414, 2.75, 0.25, 1
3415, 3, 0.25, 1
3416, 3.25, 0.25, 1
3417, 3.5, 0.25, 1
3418, 3.75, 0.25, 1
3419, 4, 0.25, 1
3420, 4.25, 0.25, 1
3421, 4.5, 0.25, 1
3422, 4.75, 0.25, 1
3423, 5, 0.25, 1
3424, 5.25, 0.25, 1
3425, 5.5, 0.25, 1
3426, 5.75, 0.25, 1
3427, 6, 0.25, 1
3428, 6.25, 0.25, 1
3429, 6.5, 0.25, 1
3430, 6.75, 0.25, 1
3431, 7, 0.25, 1
3432, 7.25, 0.25, 1
3433, 7.5, 0.25, 1
3434, 7.75, 0.25, 1
3435, 8, 0.25, 1
3436, 8.25, 0.25, 1
3437, 8.5, 0.25, 1
3438, 8.75, 0.25, 1
3439, 9, 0.25, 1
3440, 9.25, 0.25, 1
3441, 9.5, 0.25, 1
3442, 9.75, 0.25, 1
3443, 10, 0.25, 1
3444, 10.25, 0.25, 1
3445, 10.5, 0.25, 1
3446, 10.75, 0.25, 1
3447, 11, 0.25, 1
3448, 11.25, 0.25, 1
3449, 11.5, 0.25, 1
3450, 11.75, 0.25, 1
3451, 12, 0.25, 1
3452, 12.25, 0.25, 1
3453, 12.5, 0.25, 1
3454, 12.75, 0.25, 1
3455, 13, 0.25, 1
3456, 13.25, 0.25, 1
3457, 13.5, 0.25, 1
3458, 13.75, 0.25, 1
3459, 14, 0.25, 1
3460, 14.25, 0.25, 1
3461, 14.5, 0.25, 1
3462, 14.75, 0.25, 1
3463, 15, 0.25, 1
3464, 15.25, 0.25, 1
3465, 15.5, 0.25, 1
3466, 15.75, 0.25, 1
3467, 16, 0.25, 1
3468, 16.25, 0.25, 1
3469, 16.5, 0.25, 1
3470, 16.75, 0.25, 1
3471, 17, 0.25, 1
3472, 17.25, 0.25, 1
3473, 17.5, 0.25, 1
3474, 17.75, 0.25, 1
3475, 18, 0.25, 1
3476, 18.25, 0.25, 1
3477, 18.5, 0.25, 1
3478, 18.75, 0.25, 1
3479, 19, 0.25, 1
3480, 19.25, 0.25, 1
3481, 19.5, 0.25, 1
3482, 19.75, 0.25, 1
3483, 20, 0.25, 1
3484, 0, 0.5, 1
3485, 0.25, 0.5, 1
3486, 0.5, 0.5, 1
3487, 0.75, 0.5, 1
3488, 1, 0.5, 1
3489, 1.25, 0.5, 1
3490, 1.5, 0.5, 1
3491, 1.75, 0.5, 1
3492, 2, 0.5, 1
3493, 2.25, 0.5, 1
3494, 2.5, 0.5, 1
3495, 2.75, 0.5, 1
3496, 3, 0.5, 1
3497, 3.25, 0.5, 1
3498, 3.5, 0.5, 1
3499, 3.75, 0.5, 1
3500, 4, 0.5, 1
3501, 4.25, 0.5, 1
3502, 4.5, 0.5, 1
3503, 4.75, 0.5, 1
3504, 5, 0.5, 1
3505, 5.25, 0.5, 1
3506, 5.5, 0.5, 1
3507, 5.75, 0.5, 1
3508, 6, 0.5, 1
3509, 6.25, 0.5, 1
3510, 6.5, 0.5, 1
3511, 6.75, 0.5, 1
3512, 7, 0.5, 1
3513, 7.25, 0.5, 1
3514, 7.5, 0.5, 1
3515, 7.75, 0.5, 1
3516, 8, 0.5, 1
3517, 8.25, 0.5, 1
3518, 8.5, 0.5, 1
3519, 8.75, 0.5, 1
3520, 9, 0.5, 1
3521, 9.25, 0.5, 1
3522, 9.5, 0.5, 1
3523, 9.75, 0.5, 1
3524, 10, 0.5, 1
3525, 10.25, 0.5, 1
3526, 10.5, 0.5, 1
3527, 10.75, 0.5, 1
3528, 11, 0.5, 1
3529, 11.25, 0.5, 1
3530, 11.5, 0.5, 1
3531, 11.75, 0.5, 1
3532, 12, 0.5, 1
3533, 12.25, 0.5, 1
3534, 12.5, 0.5, 1
3535, 12.75, 0.5, 1
3536, 13, 0.5, 1
3537, 13.25, 0.5, 1
3538, 13.5, 0.5, 1
3539, 13.75, 0.5, 1
3540, 14, 0.5, 1
3541, 14.25, 0.5, 1
3542, 14.5, 0.5, 1
3543, 14.75, 0.5, 1
3544, 15, 0.5, 1
3545, 15.25, 0.5, 1
3546, 15.5, 0.5, 1
3547, 15.75, 0.5, 1
3548, 16, 0.5, 1
3549, 16.25, 0.5, 1
3550, 16.5, 0.5, 1
3551, 16.75, 0.5, 1
3552, 17, 0.5, 1
3553, 17.25, 0.5, 1
3554, 17.5, 0.5, 1
3555, 17.75, 0.5, 1
3556, 18, 0.5, 1
3557, 18.25, 0.5, 1
3558, 18.5, 0.5, 1
3559, 18.75, 0.5, 1
3560, 19, 0.5, 1
3561, 19.25, 0.5, 1
3562, 19.5, 0.5, 1
3563, 19.75, 0.5, 1
3564, 20, 0.5, 1
3565, 0, 0.75, 1
3566, 0.25, 0.75, 1
3567, 0.5, 0.75, 1
3568, 0.75, 0.75, 1
3569, 1, 0.75, 1
3570, 1.25, 0.75, 1
3571, 1.5, 0.75, 1
3572, 1.75, 0.75, 1
3573, 2, 0.75, 1
3574, 2.25, 0.75, 1
3575, 2.5, 0.75, 1
3576, 2.75, 0.75, 1
3577, 3, 0.75, 1
3578, 3.25, 0.75, 1
3579, 3.5, 0.75, 1
3580, 3.75, 0.75, 1
3581, 4, 0.75, 1
3582, 4.25, 0.75, 1
3583, 4.5, 0.75, 1
3584, 4.75, 0.75, 1
3585, 5, 0.75, 1
3586, 5.25, 0.75, 1
3587, 5.5, 0.75, 1
3588, 5.75, 0.75, 1
3589, 6, 0.75, 1
3590, 6.25, 0.75, 1
3591, 6.5, 0.75, 1
3592, 6.75, 0.75, 1
3593, 7, 0.75, 1
3594, 7.25, 0.75, 1
3595, 7.5, 0.75, 1
3596, 7.75, 0.75, 1
3597, 8, 0.75, 1
3598, 8.25, 0.75, 1
3599, 8.5, 0.75, 1
3600, 8.75, 0.75, 1
3601, 9, 0.75, 1
3602, 9.25, 0.75, 1
3603, 9.5, 0.75, 1
3604, 9.75, 0.75, 1
3605, 10, 0.75, 1
3606, 10.25, 0.75, 1
3607, 10.5, 0.75, 1
3608, 10.75, 0.75, 1
3609, 11, 0.75, 1
3610, 11.25, 0.75, 1
3611, 11.5, 0.75, 1
3612, 11.75, 0.75, 1
3613, 12, 0.75, 1
3614, 12.25, 0.75, 1
3615, 12.5, 0.75, 1
3616, 12.75, 0.75, 1
3617, 13, 0.75, 1
3618, 13.25, 0.75, 1
3619, 13.5, 0.75, 1
3620, 13.75, 0.75, 1
3621, 14, 0.75, 1
3622, 14.25, 0.75, 1
3623, 14.5, 0.75, 1
3624, 14.75, 0.75, 1
3625, 15, 0.75, 1
3626, 15.25, 0.75, 1
3627, 15.5, 0.75, 1
3628, 15.75, 0.75, 1
3629, 16, 0.75, 1
3630, 16.25, 0.75, 1
3631, 16.5, 0.75, 1
3632, 16.75, 0.75, 1
3633, 17, 0.75, 1
3634, 17.25, 0.75, 1
3635, 17.5, 0.75, 1
3636, 17.75, 0.75, 1
3637, 18, 0.75, 1
3638, 18.25, 0.75, 1
3639, 18.5, 0.75, 1
3640, 18.75, 0.75, 1
3641, 19, 0.75, 1
3642, 19.25, 0.75, 1
3643, 19.5, 0.75, 1
3644, 19.75, 0.75, 1
3645, 20, 0.75, 1
3646, 0, 1, 1
3647, 0.25, 1, 1
3648, 0.5, 1, 1
3649, 0.75, 1, 1
3650, 1, 1, 1
3651, 1.25, 1, 1
3652, 1.5, 1, 1
3653, 1.75, 1, 1
3654, 2, 1, 1
3655, 2.25, 1, 1
3656, 2.5, 1, 1
3657, 2.75, 1, 1
3658, 3, 1, 1
3659, 3.25, 1, 1
3660, 3.5, 1, 1
3661, 3.75, 1, 1
3662, 4, 1, 1
3663, 4.25, 1, 1
3664, 4.5, 1, 1
3665, 4.75, 1, 1
3666, 5, 1, 1
3667, 5.25, 1, 1
3668, 5.5, 1, 1
3669, 5.75, 1, 1
3670, 6, 1, 1
3671, 6.25, 1, 1
3672, 6.5, 1, 1
3673, 6.75, 1, 1
3674, 7, 1, 1
3675, 7.25, 1, 1
3676, 7.5, 1, 1
3677, 7.75, 1, 1
3678, 8, 1, 1
3679, 8.25, 1, 1
3680, 8.5, 1, 1
3681, 8.75, 1, 1
3682, 9, 1, 1
3683, 9.25, 1, 1
3684, 9.5, 1, 1
3685, 9.75, 1, 1
3686, 10, 1, 1
3687, 10.25, 1, 1
3688, 10.5, 1, 1
3689, 10.75, 1, 1
3690, 11, 1, 1
3691, 11.25, 1, 1
3692, 11.5, 1, 1
3693, 11.75, 1, 1
3694, 12, 1, 1
3695, 12.25, 1, 1
3696, 12.5, 1, 1
3697, 12.75, 1, 1
3698, 13, 1, 1
3699, 13.25, 1, 1
3700, 13.5, 1, 1
3701, 13.75, 1, 1
3702, 14, 1, 1
3703, 14.25, 1, 1
3704, 14.5, 1, 1
3705, 14.75, 1, 1
3706, 15, 1, 1
3707, 15.25, 1, 1
3708, 15.5, 1, 1
3709, 15.75, 1, 1
3710, 16, 1, 1
3711, 16.25, 1, 1
3712, 16.5, 1, 1
3713, 16.75, 1, 1
3714, 17, 1, 1
3715, 17.25, 1, 1
3716, 17.5, 1, 1
3717, 17.75, 1, 1
3718, 18, 1, 1
3719, 18.25, 1, 1
3720, 18.5, 1, 1
3721, 18.75, 1, 1
3722, 19, 1, 1
3723, 19.25, 1, 1
3724, 19.5, 1, 1
3725, 19.75, 1, 1
3726, 20, 1, 1
3727, 0, 1.25, 1
3728, 0.25, 1.25, 1
3729, 0.5, 1.25, 1
3730, 0.75, 1.25, 1
3731, 1, 1.25, 1
3732, 1.25, 1.25, 1
3733, 1.5, 1.25, 1
3734, 1.75, 1.25, 1
3735, 2, 1.25, 1
3736, 2.25, 1.25, 1
3737, 2.5, 1.25, 1
3738, 2.75, 1.25, 1
3739, 3, 1.25, 1
3740, 3.25, 1.25, 1
3741, 3.5, 1.25, 1
3742, 3.75, 1.25, 1
3743, 4, 1.25, 1
3744, 4.25, 1.25, 1
3745, 4.5, 1.25, 1
3746, 4.75, 1.25, 1
3747, 5, 1.25, 1
3748, 5.25, 1.25, 1
3749, 5.5, 1.25, 1
3750, 5.75, 1.25, 1
3751, 6, 1.25, 1
3752, 6.25, 1.25, 1
3753, 6.5, 1.25, 1
3754, 6.75, 1.25, 1
3755, 7, 1.25, 1
3756, 7.25, 1.25, 1
3757, 7.5, 1.25, 1
3758, 7.75, 1.25, 1
3759, 8, 1.25, 1
3760, 8.25, 1.25, 1
3761, 8.5, 1.25, 1
3762, 8.75, 1.25, 1
3763, 9, 1.25, 1
3764, 9.25, 1.25, 1
3765, 9.5, 1.25, 1
3766, 9.75, 1.25, 1
3767, 10, 1.25, 1
3768, 10.25, 1.25, 1
3769, 10.5, 1.25, 1
3770, 10.75, 1.25, 1
3771, 11, 1.25, 1
3772, 11.25, 1.25, 1
3773, 11.5, 1.25, 1
3774, 11.75, 1.25, 1
3775, 12, 1.25, 1
3776, 12.25, 1.25, 1
3777, 12.5, 1.25, 1
3778, 12.75, 1.25, 1
3779, 13, 1.25, 1
3780, 13.25, 1.25, 1
3781, 13.5, 1.25, 1
3782, 13.75, 1.25, 1
3783, 14, 1.25, 1
3784, 14.25, 1.25, 1
3785, 14.5, 1.25, 1
3786, 14.75, 1.25, 1
3787, 15, 1.25, 1
3788, 15.25, 1.25, 1
3789, 15.5, 1.25, 1
3790, 15.75, 1.25, 1
3791, 16, 1.25, 1
3792, 16.25, 1.25, 1
3793, 16.5, 1.25, 1
3794, 16.75, 1.25, 1
3795, 17, 1.25, 1
3796, 17.25, 1.25, 1
3797, 17.5, 1.25, 1
3798, 17.75, 1.25, 1
3799, 18, 1.25, 1
3800, 18.25, 1.25, 1
3801, 18.5, 1.25, 1
3802, 18.75, 1.25, 1
3803, 19, 1.25, 1
3804, 19.25, 1.25, 1
3805, 19.5, 1.25, 1
3806, 19.75, 1.25, 1
3807, 20, 1.25, 1
3808, 0, 1.5, 1
3809, 0.25, 1.5, 1
3810, 0.5, 1.5, 1
3811, 0.75, 1.5, 1
3812, 1, 1.5, 1
3813, 1.25, 1.5, 1
3814, 1.5, 1.5, 1
3815, 1.75, 1.5, 1
3816, 2, 1.5, 1
3817, 2.25, 1.5, 1
3818, 2.5, 1.5, 1
3819, 2.75, 1.5, 1
3820, 3, 1.5, 1
3821, 3.25, 1.5, 1
3822, 3.5, 1.5, 1
3823, 3.75, 1.5, 1
3824, 4, 1.5, 1
3825, 4.25, 1.5, 1
3826, 4.5, 1.5, 1
3827, 4.75, 1.5, 1
3828, 5, 1.5, 1
3829, 5.25, 1.5, 1
3830, 5.5, 1.5, 1
3831, 5.75, 1.5, 1
3832, 6, 1.5, 1
3833, 6.25, 1.5, 1
3834, 6.5, 1.5, 1
3835, 6.75, 1.5, 1
3836, 7, 1.5, 1
3837, 7.25, 1.5, 1
3838, 7.5, 1.5, 1
3839, 7.75, 1.5, 1
3840, 8, 1.5, 1
3841, 8.25, 1.5, 1
3842, 8.5, 1.5, 1
3843, 8.75, 1.5, 1
3844, 9, 1.5, 1
3845, 9.25, 1.5, 1
3846, 9.5, 1.5, 1
3847, 9.75, 1.5, 1
3848, 10, 1.5, 1
3849, 10.25, 1.5, 1
3850, 10.5, 1.5, 1
3851, 10.75, 1.5, 1
3852, 11, 1.5, 1
3853, 11.25, 1.5, 1
3854, 11.5, 1.5, 1
3855, 11.75, 1.5, 1
3856, 12, 1.5, 1
3857, 12.25, 1.5, 1
3858, 12.5, 1.5, 1
3859, 12.75, 1.5, 1
3860, 13, 1.5, 1
3861, 13.25, 1.5, 1
3862, 13.5, 1.5, 1
3863, 13.75, 1.5, 1
3864, 14, 1.5, 1
3865, 14.25, 1.5, 1
3866, 14.5, 1.5, 1
3867, 14.75, 1.5, 1
3868, 15, 1.5, 1
3869, 15.25, 1.5, 1
3870, 15.5, 1.5, 1
3871, 15.75, 1.5, 1
3872, 16, 1.5, 1
3873, 16.25, 1.5, 1
3874, 16.5, 1.5, 1
3875, 16.75, 1.5, 1
3876, 17, 1.5, 1
3877, 17.25, 1.5, 1
3878, 17.5, 1.5, 1
3879, 17.75, 1.5, 1
3880, 18, 1.5, 1
3881, 18.25, 1.5, 1
3882, 18.5, 1.5, 1
3883, 18.75, 1.5, 1
3884, 19, 1.5, 1
3885, 19.25, 1.5, 1
3886, 19.5, 1.5, 1
3887, 19.75, 1.5, 1
3888, 20, 1.5, 1
3889, 0, 1.75, 1
3890, 0.25, 1.75, 1
3891, 0.5, 1.75, 1
3892, 0.75, 1.75, 1
3893, 1, 1.75, 1
3894, 1.25, 1.75, 1
3895, 1.5, 1.75, 1
3896, 1.75, 1.75, 1
3897, 2, 1.75, 1
3898, 2.25, 1.75, 1
3899, 2.5, 1.75, 1
3900, 2.75, 1.75, 1
3901, 3, 1.75, 1
3902, 3.25, 1.75, 1
3903, 3.5, 1.75, 1
3904, 3.75, 1.75, 1
3905, 4, 1.75, 1
3906, 4.25, 1.75, 1
3907, 4.5, 1.75, 1
3908, 4.75, 1.75, 1
3909, 5, 1.75, 1
3910, 5.25, 1.75, 1
3911, 5.5, 1.75, 1
3912, 5.75, 1.75, 1
3913, 6, 1.75, 1
3914, 6.25, 1.75, 1
3915, 6.5, 1.75, 1
3916, 6.75, 1.75, 1
3917, 7, 1.75, 1
3918, 7.25, 1.75, 1
3919, 7.5, 1.75, 1
3920, 7.75, 1.75, 1
3921, 8, 1.75, 1
3922, 8.25, 1.75, 1
3923, 8.5, 1.75, 1
3924, 8.75, 1.75, 1
3925, 9, 1.75, 1
3926, 9.25, 1.75, 1
3927, 9.5, 1.75, 1
3928, 9.75, 1.75, 1
3929, 10, 1.75, 1
3930, 10.25, 1.75, 1
3931, 10.5, 1.75, 1
3932, 10.75, 1.75, 1
3933, 11, 1.75, 1
3934, 11.25, 1.75, 1
3935, 11.5, 1.75, 1
3936, 11.75, 1.75, 1
3937, 12, 1.75, 1
3938, 12.25, 1.75, 1
3939, 12.5, 1.75, 1
3940, 12.75, 1.75, 1
3941, 13, 1.75, 1
3942, 13.25, 1.75, 1
3943, 13.5, 1.75, 1
3944, 13.75, 1.75, 1
3945, 14, 1.75, 1
3946, 14.25, 1.75, 1
3947, 14.5, 1.75, 1
3948, 14.75, 1.75, 1
3949, 15, 1.75, 1
3950, 15.25, 1.75, 1
3951, 15.5, 1.75, 1
3952, 15.75, 1.75, 1
3953, 16, 1.75, 1
3954, 16.25, 1.75, 1
3955, 16.5, 1.75, 1
3956, 16.75, 1.75, 1
3957, 17, 1.75, 1
3958, 17.25, 1.75, 1
3959, 17.5, 1.75, 1
3960, 17.75, 1.75, 1
3961, 18, 1.75, 1
3962, 18.25, 1.75, 1
3963, 18.5, 1.75, 1
3964, 18.75, 1.75, 1
3965, 19, 1.75, 1
3966, 19.25, 1.75, 1
3967, 19.5, 1.75, 1
3968, 19.75, 1.75, 1
3969, 20, 1.75, 1
3970, 0, 2, 1
3971, 0.25, 2, 1
3972, 0.5, 2, 1
3973, 0.75, 2, 1
3974, 1, 2, 1
3975, 1.25, 2, 1
3976, 1.5, 2, 1
3977, 1.75, 2, 1
3978, 2, 2, 1
3979, 2.25, 2, 1
3980, 2.5, 2, 1
3981, 2.75, 2, 1
3982, 3, 2, 1
3983, 3.25, 2, 1
3984, 3.5, 2, 1
3985, 3.75, 2, 1
3986, 4, 2, 1
3987, 4.25, 2, 1
3988, 4.5, 2, 1
3989, 4.75, 2, 1
3990, 5, 2, 1
3991, 5.25, 2, 1
3992, 5.5, 2, 1
3993, 5.75, 2, 1
3994, 6, 2, 1
3995, 6.25, 2, 1
3996, 6.5, 2, 1
3997, 6.75, 2, 1
3998, 7, 2, 1
3999, 7.25, 2, 1
4000, 7.5, 2, 1
4001, 7.75, 2, 1
4002, 8, 2, 1
4003, 8.25, 2, 1
4004, 8.5, 2, 1
4005, 8.75, 2, 1
4006, 9, 2, 1
4007, 9.25, 2, 1
4008, 9.5, 2, 1
4009, 9.75, 2, 1
4010, 10, 2, 1
4011, 10.25, 2, 1
4012, 10.5, 2, 1
4013, 10.75, 2, 1
4014, 11, 2, 1
4015, 11.25, 2, 1
4016, 11.5, 2, 1
4017, 11.75, 2, 1
4018, 12, 2, 1
4019, 12.25, 2, 1
4020, 12.5, 2, 1
4021, 12.75, 2, 1
4022, 13, 2, 1
4023, 13.25, 2, 1
4024, 13.5, 2, 1
4025, 13.75, 2, 1
4026, 14, 2, 1
4027, 14.25, 2, 1
4028, 14.5, 2, 1
4029, 14.75, 2, 1
4030, 15, 2, 1
4031, 15.25, 2, 1
4032, 15.5, 2, 1
4033, 15.75, 2, 1
4034, 16, 2, 1
4035, 16.25, 2, 1
4036, 16.5, 2, 1
4037, 16.75, 2, 1
4038, 17, 2, 1
4039, 17.25, 2, 1
4040, 17.5, 2, 1
4041, 17.75, 2, 1
4042, 18, 2, 1
4043, 18.25, 2, 1
4044, 18.5, 2, 1
4045, 18.75, 2, 1
4046, 19, 2, 1
4047, 19.25, 2, 1
4048, 19.5, 2, 1
4049, 19.75, 2, 1
4050, 20, 2, 1
4051, 0, 2.25, 1
4052, 0.25, 2.25, 1
4053, 0.5, 2.25, 1
4054, 0.75, 2.25, 1
4055, 1, 2.25, 1
4056, 1.25, 2.25, 1
4057, 1.5, 2.25, 1
4058, 1.75, 2.25, 1
4059, 2, 2.25, 1
4060, 2.25, 2.25, 1
4061, 2.5, 2.25, 1
4062, 2.75, 2.25, 1
4063, 3, 2.25, 1
4064, 3.25, 2.25, 1
4065, 3.5, 2.25, 1
4066, 3.75, 2.25, 1
4067, 4, 2.25, 1
4068, 4.25, 2.25, 1
4069, 4.5, 2.25, 1
4070, 4.75, 2.25, 1
4071, 5, 2.25, 1
4072, 5.25, 2.25, 1
4073, 5.5, 2.25, 1
4074, 5.75, 2.25, 1
4075, 6, 2.25, 1
4076, 6.25, 2.25, 1
4077, 6.5, 2.25, 1
4078, 6.75, 2.25, 1
4079, 7, 2.25, 1
4080, 7.25, 2.25, 1
4081, 7.5, 2.25, 1
4082, 7.75, 2.25, 1
4083, 8, 2.25, 1
4084, 8.25, 2.25, 1
4085, 8.5, 2.25, 1
4086, 8.75, 2.25, 1
4087, 9, 2.25, 1
4088, 9.25, 2.25, 1
4089, 9.5, 2.25, 1
4090, 9.75, 2.25, 1
4091, 10, 2.25, 1
4092, 10.25, 2.25, 1
4093, 10.5, 2.25, 1
4094, 10.75, 2.25, 1
4095, 11, 2.25, 1
4096, 11.25, 2.25, 1
4097, 11.5, 2.25, 1
4098, 11.75, 2.25, 1
4099, 12, 2.25, 1
4100, 12.25, 2.25, 1
4101, 12.5, 2.25, 1
4102, 12.75, 2.25, 1
4103, 13, 2.25, 1
4104, 13.25, 2.25, 1
4105, 13.5, 2.25, 1
4106, 13.75, 2.25, 1
4107, 14, 2.25, 1
4108, 14.25, 2.25, 1
4109, 14.5, 2.25, 1
4110, 14.75, 2.25, 1
4111, 15, 2.25, 1
4112, 15.25, 2.25, 1
4113, 15.5, 2.25, 1
4114, 15.75, 2.25, 1
4115, 16, 2.25, 1
4116, 16.25, 2.25, 1
4117, 16.5, 2.25, 1
4118, 16.75, 2.25, 1
4119, 17, 2.25, 1
4120, 17.25, 2.25, 1
4121, 17.5, 2.25, 1
4122, 17.75, 2.25, 1
4123, 18, 2.25, 1
4124, 18.25, 2.25, 1
4125, 18.5, 2.25, 1
4126, 18.75, 2.25, 1
4127, 19, 2.25, 1
4128, 19.25, 2.25, 1
4129, 19.5, 2.25, 1
4130, 19.75, 2.25, 1
4131, 20, 2.25, 1
4132, 0, 2.5, 1
4133, 0.25, 2.5, 1
4134, 0.5, 2.5, 1
4135, 0.75, 2.5, 1
4136, 1, 2.5, 1
4137, 1.25, 2.5, 1
4138, 1.5, 2.5, 1
4139, 1.75, 2.5, 1
4140, 2, 2.5, 1
4141, 2.25, 2.5, 1
4142, 2.5, 2.5, 1
4143, 2.75, 2.5, 1
4144, 3, 2.5, 1
4145, 3.25, 2.5, 1
4146, 3.5, 2.5, 1
4147, 3.75, 2.5, 1
4148, 4, 2.5, 1
4149, 4.25, 2.5, 1
4150, 4.5, 2.5, 1
4151, 4.75, 2.5, 1
4152, 5, 2.5, 1
4153, 5.25, 2.5, 1
4154, 5.5, 2.5, 1
4155, 5.75, 2.5, 1
4156, 6, 2.5, 1
4157, 6.25, 2.5, 1
4158, 6.5, 2.5, 1
4159, 6.75, 2.5, 1
4160, 7, 2.5, 1
4161, 7.25, 2.5, 1
4162, 7.5, 2.5, 1
4163, 7.75, 2.5, 1
4164, 8, 2.5, 1
4165, 8.25, 2.5, 1
4166, 8.5, 2.5, 1
4167, 8.75, 2.5, 1
4168, 9, 2.5, 1
4169, 9.25, 2.5, 1
4170, 9.5, 2.5, 1
4171, 9.75, 2.5, 1
4172, 10, 2.5, 1
4173, 10.25, 2.5, 1
4174, 10.5, 2.5, 1
4175, 10.75, 2.5, 1
4176, 11, 2.5, 1
4177, 11.25, 2.5, 1
4178, 11.5, 2.5, 1
4179, 11.75, 2.5, 1
4180, 12, 2.5, 1
4181, 12.25, 2.5, 1
4182, 12.5, 2.5, 1
4183, 12.75, 2.5, 1
4184, 13, 2.5, 1
4185, 13.25, 2.5, 1
4186, 13.5, 2.5, 1
4187, 13.75, 2.5, 1
4188, 14, 2.5, 1
4189, 14.25, 2.5, 1
4190, 14.5, 2.5, 1
4191, 14.75, 2.5, 1
4192, 15, 2.5, 1
4193, 15.25, 2.5, 1
4194, 15.5, 2.5, 1
4195, 15.75, 2.5, 1
4196, 16, 2.5, 1
4197, 16.25, 2.5, 1
4198, 16.5, 2.5, 1
4199, 16.75, 2.5, 1
4200, 17, 2.5, 1
4201, 17.25, 2.5, 1
4202, 17.5, 2.5, 1
4203, 17.75, 2.5, 1
4204, 18, 2.5, 1
4205, 18.25, 2.5, 1
4206, 18.5, 2.5, 1
4207, 18.75, 2.5, 1
4208, 19, 2.5, 1
4209, 19.25, 2.5, 1
4210, 19.5, 2.5, 1
4211, 19.75, 2.5, 1
4212, 20, 2.5, 1
4213, 0, 2.75, 1
4214, 0.25, 2.75, 1
4215, 0.5, 2.75, 1
4216, 0.75, 2.75, 1
4217, 1, 2.75, 1
4218, 1.25, 2.75, 1
4219, 1.5, 2.75, 1
4220, 1.75, 2.75, 1
4221, 2, 2.75, 1
4222, 2.25, 2.75, 1
4223, 2.5, 2.75, 1
4224, 2.75, 2.75, 1
4225, 3, 2.75, 1
4226, 3.25, 2.75, 1
4227, 3.5, 2.75, 1
4228, 3.75, 2.75, 1
4229, 4, 2.75, 1
4230, 4.25, 2.75, 1
4231, 4.5, 2.75, 1
4232, 4.75, 2.75, 1
4233, 5, 2.75, 1
4234, 5.25, 2.75, 1
4235, 5.5, 2.75, 1
4236, 5.75, 2.75, 1
4237, 6, 2.75, 1
4238, 6.25, 2.75, 1
4239, 6.5, 2.75, 1
4240, 6.75, 2.75, 1
4241, 7, 2.75, 1
4242, 7.25, 2.75, 1
4243, 7.5, 2.75, 1
4244, 7.75, 2.75, 1
4245, 8, 2.75, 1
4246, 8.25, 2.75, 1
4247, 8.5, 2.75, 1
4248, 8.75, 2.75, 1
4249, 9, 2.75, 1
4250, 9.25, 2.75, 1
4251, 9.5, 2.75, 1
4252, 9.75, 2.75, 1
4253, 10, 2.75, 1
4254, 10.25, 2.75, 1
4255, 10.5, 2.75, 1
4256, 10.75, 2.75, 1
4257, 11, 2.75, 1
4258, 11.25, 2.75, 1
4259, 11.5, 2.75, 1
4260, 11.75, 2.75, 1
4261, 12, 2.75, 1
4262, 12.25, 2.75, 1
4263, 12.5, 2.75, 1
4264, 12.75, 2.75, 1
4265, 13, 2.75, 1
4266, 13.25, 2.75, 1
4267, 13.5, 2.75, 1
4268, 13.75, 2.75, 1
4269, 14, 2.75, 1
4270, 14.25, 2.75, 1
4271, 14.5, 2.75, 1
4272, 14.75, 2.75, 1
4273, 15, 2.75, 1
4274, 15.25, 2.75, 1
4275, 15.5, 2.75, 1
4276, 15.75, 2.75, 1
4277, 16, 2.75, 1
4278, 16.25, 2.75, 1
4279, 16.5, 2.75, 1
4280, 16.75, 2.75, 1
4281, 17, 2.75, 1
4282, 17.25, 2.75, 1
4283, 17.5, 2.75, 1
4284, 17.75, 2.75, 1
4285, 18, 2.75, 1
4286, 18.25, 2.75, 1
4287, 18.5, 2.75, 1
4288, 18.75, 2.75, 1
4289, 19, 2.75, 1
4290, 19.25, 2.75, 1
4291, 19.5, 2.75, 1
4292, 19.75, 2.75, 1
4293, 20, 2.75, 1
4294, 0, 3, 1
4295, 0.25, 3, 1
4296, 0.5, 3, 1
4297, 0.75, 3, 1
4298, 1, 3, 1
4299, 1.25, 3, 1
4300, 1.5, 3, 1
4301, 1.75, 3, 1
4302, 2, 3, 1
4303, 2.25, 3, 1
4304, 2.5, 3, 1
4305, 2.75, 3, 1
4306, 3, 3, 1
4307, 3.25, 3, 1
4308, 3.5, 3, 1
4309, 3.75, 3, 1
4310, 4, 3, 1
4311, 4.25, 3, 1
4312, 4.5, 3, 1
4313, 4.75, 3, 1
4314, 5, 3, 1
4315, 5.25, 3, 1
4316, 5.5, 3, 1
4317, 5.75, 3, 1
4318, 6, 3, 1
4319, 6.25, 3, 1
4320, 6.5, 3, 1
4321, 6.75, 3, 1
4322, 7, 3, 1
4323, 7.25, 3, 1
4324, 7.5, 3, 1
4325, 7.75, 3, 1
4326, 8, 3, 1
4327, 8.25, 3, 1
4328, 8.5, 3, 1
4329, 8.75, 3, 1
4330, 9, 3, 1
4331, 9.25, 3, 1
4332, 9.5, 3, 1
4333, 9.75, 3, 1
4334, 10, 3, 1
4335, 10.25, 3, 1
4336, 10.5, 3, 1
4337, 10.75, 3, 1
4338, 11, 3, 1
4339, 11.25, 3, 1
4340, 11.5, 3, 1
4341, 11.75, 3, 1
4342, 12, 3, 1
4343, 12.25, 3, 1
4344, 12.5, 3, 1
4345, 12.75, 3, 1
4346, 13, 3, 1
4347, 13.25, 3, 1
4348, 13.5, 3, 1
4349, 13.75, 3, 1
4350, 14, 3, 1
4351, 14.25, 3, 1
4352, 14.5, 3, 1
4353, 14.75, 3, 1
4354, 15, 3, 1
4355, 15.25, 3, 1
4356, 15.5, 3, 1
4357, 15.75, 3, 1
4358, 16, 3, 1
4359, 16.25, 3, 1
4360, 16.5, 3, 1
4361, 16.75, 3, 1
4362, 17, 3, 1
4363, 17.25, 3, 1
4364, 17.5, 3, 1
4365, 17.75, 3, 1
4366, 18, 3, 1
4367, 18.25, 3, 1
4368, 18.5, 3, 1
4369, 18.75, 3, 1
4370, 19, 3, 1
4371, 19.25, 3, 1
4372, 19.5, 3, 1
4373, 19.75, 3, 1
4374, 20, 3, 1
4375, 0, 3.25, 1
4376, 0.25, 3.25, 1
4377, 0.5, 3.25, 1
4378, 0.75, 3.25, 1
4379, 1, 3.25, 1
4380, 1.25, 3.25, 1
4381, 1.5, 3.25, 1
4382, 1.75, 3.25, 1
4383, 2, 3.25, 1
4384, 2.25, 3.25, 1
4385, 2.5, 3.25, 1
4386, 2.75, 3.25, 1
4387, 3, 3.25, 1
4388, 3.25, 3.25, 1
4389, 3.5, 3.25, 1
4390, 3.75, 3.25, 1
4391, 4, 3.25, 1
4392, 4.25, 3.25, 1
4393, 4.5, 3.25, 1
4394, 4.75, 3.25, 1
4395, 5, 3.25, 1
4396, 5.25, 3.25, 1
4397, 5.5, 3.25, 1
4398, 5.75, 3.25, 1
4399, 6, 3.25, 1
4400, 6.25, 3.25, 1
4401, 6.5, 3.25, 1
4402, 6.75, 3.25, 1
4403, 7, 3.25, 1
4404, 7.25, 3.25, 1
4405, 7.5, 3.25, 1
4406, 7.75, 3.25, 1
4407, 8, 3.25, 1
4408, 8.25, 3.25, 1
4409, 8.5, 3.25, 1
4410, 8.75, 3.25, 1
4411, 9, 3.25, 1
4412, 9.25, 3.25, 1
4413, 9.5, 3.25, 1
4414, 9.75, 3.25, 1
4415, 10, 3.25, 1
4416, 10.25, 3.25, 1
4417, 10.5, 3.25, 1
4418, 10.75, 3.25, 1
4419, 11, 3.25, 1
4420, 11.25, 3.25, 1
4421, 11.5, 3.25, 1
4422, 11.75, 3.25, 1
4423, 12, 3.25, 1
4424, 12.25, 3.25, 1
4425, 12.5, 3.25, 1
4426, 12.75, 3.25, 1
4427, 13, 3.25, 1
4428, 13.25, 3.25, 1
4429, 13.5, 3.25, 1
4430, 13.75, 3.25, 1
4431, 14, 3.25, 1
4432, 14.25, 3.25, 1
4433, 14.5, 3.25, 1
4434, 14.75, 3.25, 1
4435, 15, 3.25, 1
4436, 15.25, 3.25, 1
4437, 15.5, 3.25, 1
4438, 15.75, 3.25, 1
4439, 16, 3.25, 1
4440, 16.25, 3.25, 1
4441, 16.5, 3.25, 1
4442, 16.75, 3.25, 1
4443, 17, 3.25, 1
4444, 17.25, 3.25, 1
4445, 17.5, 3.25, 1
4446, 17.75, 3.25, 1
4447, 18, 3.25, 1
4448, 18.25, 3.25, 1
4449, 18.5, 3.25, 1
4450, 18.75, 3.25, 1
4451, 19, 3.25, 1
4452, 19.25, 3.25, 1
4453, 19.5, 3.25, 1
4454, 19.75, 3.25, 1
4455, 20, 3.25, 1
4456, 0, 3.5, 1
4457, 0.25, 3.5, 1
4458, 0.5, 3.5, 1
4459, 0.75, 3.5, 1
4460, 1, 3.5, 1
4461, 1.25, 3.5, 1
4462, 1.5, 3.5, 1
4463, 1.75, 3.5, 1
4464, 2, 3.5, 1
4465, 2.25, 3.5, 1
4466, 2.5, 3.5, 1
4467, 2.75, 3.5, 1
4468, 3, 3.5, 1
4469, 3.25, 3.5, 1
4470, 3.5, 3.5, 1
4471, 3.75, 3.5, 1
4472, 4, 3.5, 1
4473, 4.25, 3.5, 1
4474, 4.5, 3.5, 1
4475, 4.75, 3.5, 1
4476, 5, 3.5, 1
4477, 5.25, 3.5, 1
4478, 5.5, 3.5, 1
4479, 5.75, 3.5, 1
4480, 6, 3.5, 1
4481, 6.25, 3.5, 1
4482, 6.5, 3.5, 1
4483, 6.75, 3.5, 1
4484, 7, 3.5, 1
4485, 7.25, 3.5, 1
4486, 7.5, 3.5, 1
4487, 7.75, 3.5, 1
4488, 8, 3.5, 1
4489, 8.25, 3.5, 1
4490, 8.5, 3.5, 1
4491, 8.75, 3.5, 1
4492, 9, 3.5, 1
4493, 9.25, 3.5, 1
4494, 9.5, 3.5, 1
4495, 9.75, 3.5, 1
4496, 10, 3.5, 1
4497, 10.25, 3.5, 1
4498, 10.5, 3.5, 1
4499, 10.75, 3.5, 1
4500, 11, 3.5, 1
4501, 11.25, 3.5, 1
4502, 11.5, 3.5, 1
4503, 11.75, 3.5, 1
4504, 12, 3.5, 1
4505, 12.25, 3.5, 1
4506, 12.5, 3.5, 1
4507, 12.75, 3.5, 1
4508, 13, 3.5, 1
4509, 13.25, 3.5, 1
4510, 13.5, 3.5, 1
4511, 13.75, 3.5, 1
4512, 14, 3.5, 1
4513, 14.25, 3.5, 1
4514, 14.5, 3.5, 1
4515, 14.75, 3.5, 1
4516, 15, 3.5, 1
4517, 15.25, 3.5, 1
4518, 15.5, 3.5, 1
4519, 15.75, 3.5, 1
4520, 16, 3.5, 1
4521, 16.25, 3.5, 1
4522, 16.5, 3.5, 1
4523, 16.75, 3.5, 1
4524, 17, 3.5, 1
4525, 17.25, 3.5, 1
4526, 17.5, 3.5, 1
4527, 17.75, 3.5, 1
4528, 18, 3.5, 1
4529, 18.25, 3.5, 1
4530, 18.5, 3.5, 1
4531, 18.75, 3.5, 1
4532, 19, 3.5, 1
4533, 19.25, 3.5, 1
4534, 19.5, 3.5, 1
4535, 19.75, 3.5, 1
4536, 20, 3.5, 1
4537, 0, 3.75, 1
4538, 0.25, 3.75, 1
4539, 0.5, 3.75, 1
4540, 0.75, 3.75, 1
4541, 1, 3.75, 1
4542, 1.25, 3.75, 1
4543, 1.5, 3.75, 1
4544, 1.75, 3.75, 1
4545, 2, 3.75, 1
4546, 2.25, 3.75, 1
4547, 2.5, 3.75, 1
4548, 2.75, 3.75, 1
4549, 3, 3.75, 1
4550, 3.25, 3.75, 1
4551, 3.5, 3.75, 1
4552, 3.75, 3.75, 1
4553, 4, 3.75, 1
4554, 4.25, 3.75, 1
4555, 4.5, 3.75, 1
4556, 4.75, 3.75, 1
4557, 5, 3.75, 1
4558, 5.25, 3.75, 1
4559, 5.5, 3.75, 1
4560, 5.75, 3.75, 1
4561, 6, 3.75, 1
4562, 6.25, 3.75, 1
4563, 6.5, 3.75, 1
4564, 6.75, 3.75, 1
4565, 7, 3.75, 1
4566, 7.25, 3.75, 1
4567, 7.5, 3.75, 1
4568, 7.75, 3.75, 1
4569, 8, 3.75, 1
4570, 8.25, 3.75, 1
4571, 8.5, 3.75, 1
4572, 8.75, 3.75, 1
4573, 9, 3.75, 1
4574, 9.25, 3.75, 1
4575, 9.5, 3.75, 1
4576, 9.75, 3.75, 1
4577, 10, 3.75, 1
4578, 10.25, 3.75, 1
4579, 10.5, 3.75, 1
4580, 10.75, 3.75, 1
4581, 11, 3.75, 1
4582, 11.25, 3.75, 1
4583, 11.5, 3.75, 1
4584, 11.75, 3.75, 1
4585, 12, 3.75, 1
4586, 12.25, 3.75, 1
4587, 12.5, 3.75, 1
4588, 12.75, 3.75, 1
4589, 13, 3.75, 1
4590, 13.25, 3.75, 1
4591, 13.5, 3.75, 1
4592, 13.75, 3.75, 1
4593, 14, 3.75, 1
4594, 14.25, 3.75, 1
4595, 14.5, 3.75, 1
4596, 14.75, 3.75, 1
4597, 15, 3.75, 1
4598, 15.25, 3.75, 1
4599, 15.5, 3.75, 1
4600, 15.75, 3.75, 1
4601, 16, 3.75, 1
4602, 16.25, 3.75, 1
4603, 16.5, 3.75, 1
4604, 16.75, 3.75, 1
4605, 17, 3.75, 1
4606, 17.25, 3.75, 1
4607, 17.5, 3.75, 1
4608, 17.75, 3.75, 1
4609, 18, 3.75, 1
4610, 18.25, 3.75, 1
4611, 18.5, 3.75, 1
4612, 18.75, 3.75, 1
4613, 19, 3.75, 1
4614, 19.25, 3.75, 1
4615, 19.5, 3.75, 1
4616, 19.75, 3.75, 1
4617, 20, 3.75, 1
4618, 0, 4, 1
4619, 0.25, 4, 1
4620, 0.5, 4, 1
4621, 0.75, 4, 1
4622, 1, 4, 1
4623, 1.25, 4, 1
4624, 1.5, 4, 1
4625, 1.75, 4, 1
4626, 2, 4, 1
4627, 2.25, 4, 1
4628, 2.5, 4, 1
4629, 2.75, 4, 1
4630, 3, 4, 1
4631, 3.25, 4, 1
4632, 3.5, 4, 1
4633, 3.75, 4, 1
4634, 4, 4, 1
4635, 4.25, 4, 1
4636, 4.5, 4, 1
4637, 4.75, 4, 1
4638, 5, 4, 1
4639, 5.25, 4, 1
4640, 5.5, 4, 1
4641, 5.75, 4, 1
4642, 6, 4, 1
4643, 6.25, 4, 1
4644, 6.5, 4, 1
4645, 6.75, 4, 1
4646, 7, 4, 1
4647, 7.25, 4, 1
4648, 7.5, 4, 1
4649, 7.75, 4, 1
4650, 8, 4, 1
4651, 8.25, 4, 1
4652, 8.5, 4, 1
4653, 8.75, 4, 1
4654, 9, 4, 1
4655, 9.25, 4, 1
4656, 9.5, 4, 1
4657, 9.75, 4, 1
4658, 10, 4, 1
4659, 10.25, 4, 1
4660, 10.5, 4, 1
4661, 10.75, 4, 1
4662, 11, 4, 1
4663, 11.25, 4, 1
4664, 11.5, 4, 1
4665, 11.75, 4, 1
4666, 12, 4, 1
4667, 12.25, 4, 1
4668, 12.5, 4, 1
4669, 12.75, 4, 1
4670, 13, 4, 1
4671, 13.25, 4, 1
4672, 13.5, 4, 1
4673, 13.75, 4, 1
4674, 14, 4, 1
4675, 14.25, 4, 1
4676, 14.5, 4, 1
4677, 14.75, 4, 1
4678, 15, 4, 1
4679, 15.25, 4, 1
4680, 15.5, 4, 1
4681, 15.75, 4, 1
4682, 16, 4, 1
4683, 16.25, 4, 1
4684, 16.5, 4, 1
4685, 16.75, 4, 1
4686, 17, 4, 1
4687, 17.25, 4, 1
4688, 17.5, 4, 1
4689, 17.75, 4, 1
4690, 18, 4, 1
4691, 18.25, 4, 1
4692, 18.5, 4, 1
4693, 18.75, 4, 1
4694, 19, 4, 1
4695, 19.25, 4, 1
4696, 19.5, 4, 1
4697, 19.75, 4, 1
4698, 20, 4, 1
4699, 0, 4.25, 1
4700, 0.25, 4.25, 1
4701, 0.5, 4.25, 1
4702, 0.75, 4.25, 1
4703, 1, 4.25, 1
4704, 1.25, 4.25, 1
4705, 1.5, 4.25, 1
4706, 1.75, 4.25, 1
4707, 2, 4.25, 1
4708, 2.25, 4.25, 1
4709, 2.5, 4.25, 1
4710, 2.75, 4.25, 1
4711, 3, 4.25, 1
4712, 3.25, 4.25, 1
4713, 3.5, 4.25, 1
4714, 3.75, 4.25, 1
4715, 4, 4.25, 1
4716, 4.25, 4.25, 1
4717, 4.5, 4.25, 1
4718, 4.75, 4.25, 1
4719, 5, 4.25, 1
4720, 5.25, 4.25, 1
4721, 5.5, 4.25, 1
4722, 5.75, 4.25, 1
4723, 6, 4.25, 1
4724, 6.25, 4.25, 1
4725, 6.5, 4.25, 1
4726, 6.75, 4.25, 1
4727, 7, 4.25, 1
4728, 7.25, 4.25, 1
4729, 7.5, 4.25, 1
4730, 7.75, 4.25, 1
4731, 8, 4.25, 1
4732, 8.25, 4.25, 1
4733, 8.5, 4.25, 1
4734, 8.75, 4.25, 1
4735, 9, 4.25, 1
4736, 9.25, 4.25, 1
4737, 9.5, 4.25, 1
4738, 9.75, 4.25, 1
4739, 10, 4.25, 1
4740, 10.25, 4.25, 1
4741, 10.5, 4.25, 1
4742, 10.75, 4.25, 1
4743, 11, 4.25, 1
4744, 11.25, 4.25, 1
4745, 11.5, 4.25, 1
4746, 11.75, 4.25, 1
4747, 12, 4.25, 1
4748, 12.25, 4.25, 1
4749, 12.5, 4.25, 1
4750, 12.75, 4.25, 1
4751, 13, 4.25, 1
4752, 13.25, 4.25, 1
4753, 13.5, 4.25, 1
4754, 13.75, 4.25, 1
4755, 14, 4.25, 1
4756, 14.25, 4.25, 1
4757, 14.5, 4.25, 1
4758, 14.75, 4.25, 1
4759, 15, 4.25, 1
4760, 15.25, 4.25, 1
4761, 15.5, 4.25, 1
4762, 15.75, 4.25, 1
4763, 16, 4.25, 1
4764, 16.25, 4.25, 1
4765, 16.5, 4.25, 1
4766, 16.75, 4.25, 1
4767, 17, 4.25, 1
4768, 17.25, 4.25, 1
4769, 17.5, 4.25, 1
4770, 17.75, 4.25, 1
4771, 18, 4.25, 1
4772, 18.25, 4.25, 1
4773, 18.5, 4.25, 1
4774, 18.75, 4.25, 1
4775, 19, 4.25, 1
4776, 19.25, 4.25, 1
4777, 19.5, 4.25, 1
4778, 19.75, 4.25, 1
4779, 20, 4.25, 1
4780, 0, 4.5, 1
4781, 0.25, 4.5, 1
4782, 0.5, 4.5, 1
4783, 0.75, 4.5, 1
4784, 1, 4.5, 1
4785, 1.25, 4.5, 1
4786, 1.5, 4.5, 1
4787, 1.75, 4.5, 1
4788, 2, 4.5, 1
4789, 2.25, 4.5, 1
4790, 2.5, 4.5, 1
4791, 2.75, 4.5, 1
4792, 3, 4.5, 1
4793, 3.25, 4.5, 1
4794, 3.5, 4.5, 1
4795, 3.75, 4.5, 1
4796, 4, 4.5, 1
4797, 4.25, 4.5, 1
4798, 4.5, 4.5, 1
4799, 4.75, 4.5, 1
4800, 5, 4.5, 1
4801, 5.25, 4.5, 1
4802, 5.5, 4.5, 1
4803, 5.75, 4.5, 1
4804, 6, 4.5, 1
4805, 6.25, 4.5, 1
4806, 6.5, 4.5, 1
4807, 6.75, 4.5, 1
4808, 7, 4.5, 1
4809, 7.25, 4.5, 1
4810, 7.5, 4.5, 1
4811, 7.75, 4.5, 1
4812, 8, 4.5, 1
4813, 8.25, 4.5, 1
4814, 8.5, 4.5, 1
4815, 8.75, 4.5, 1
4816, 9, 4.5, 1
4817, 9.25, 4.5, 1
4818, 9.5, 4.5, 1
4819, 9.75, 4.5, 1
4820, 10, 4.5, 1
4821, 10.25, 4.5, 1
4822, 10.5, 4.5, 1
4823, 10.75, 4.5, 1
4824, 11, 4.5, 1
4825, 11.25, 4.5, 1
4826, 11.5, 4.5, 1
4827, 11.75, 4.5, 1
4828, 12, 4.5, 1
4829, 12.25, 4.5, 1
4830, 12.5, 4.5, 1
4831, 12.75, 4.5, 1
4832, 13, 4.5, 1
4833, 13.25, 4.5, 1
4834, 13.5, 4.5, 1
4835, 13.75, 4.5, 1
4836, 14, 4.5, 1
4837, 14.25, 4.5, 1
4838, 14.5, 4.5, 1
4839, 14.75, 4.5, 1
4840, 15, 4.5, 1
4841, 15.25, 4.5, 1
4842, 15.5, 4.5, 1
4843, 15.75, 4.5, 1
4844, 16, 4.5, 1
4845, 16.25, 4.5, 1
4846, 16.5, 4.5, 1
4847, 16.75, 4.5, 1
4848, 17, 4.5, 1
4849, 17.25, 4.5, 1
4850, 17.5, 4.5, 1
4851, 17.75, 4.5, 1
4852, 18, 4.5, 1
4853, 18.25, 4.5, 1
4854, 18.5, 4.5, 1
4855, 18.75, 4.5, 1
4856, 19, 4.5, 1
4857, 19.25, 4.5, 1
4858, 19.5, 4.5, 1
4859, 19.75, 4.5, 1
4860, 20, 4.5, 1
4861, 0, 4.75, 1
4862, 0.25, 4.75, 1
4863, 0.5, 4.75, 1
4864, 0.75, 4.75, 1
4865, 1, 4.75, 1
4866, 1.25, 4.75, 1
4867, 1.5, 4.75, 1
4868, 1.75, 4.75, 1
4869, 2, 4.75, 1
4870, 2.25, 4.75, 1
4871, 2.5, 4.75, 1
4872, 2.75, 4.75, 1
4873, 3, 4.75, 1
4874, 3.25, 4.75, 1
4875, 3.5, 4.75, 1
4876, 3.75, 4.75, 1
4877, 4, 4.75, 1
4878, 4.25, 4.75, 1
4879, 4.5, 4.75, 1
4880, 4.75, 4.75, 1
4881, 5, 4.75, 1
4882, 5.25, 4.75, 1
4883, 5.5, 4.75, 1
4884, 5.75, 4.75, 1
4885, 6, 4.75, 1
4886, 6.25, 4.75, 1
4887, 6.5, 4.75, 1
4888, 6.75, 4.75, 1
4889, 7, 4.75, 1
4890, 7.25, 4.75, 1
4891, 7.5, 4.75, 1
4892, 7.75, 4.75, 1
4893, 8, 4.75, 1
4894, 8.25, 4.75, 1
4895, 8.5, 4.75, 1
4896, 8.75, 4.75, 1
4897, 9, 4.75, 1
4898, 9.25, 4.75, 1
4899, 9.5, 4.75, 1
4900, 9.75, 4.75, 1
4901, 10, 4.75, 1
4902, 10.25, 4.75, 1
4903, 10.5, 4.75, 1
4904, 10.75, 4.75, 1
4905, 11, 4.75, 1
4906, 11.25, 4.75, 1
4907, 11.5, 4.75, 1
4908, 11.75, 4.75, 1
4909, 12, 4.75, 1
4910, 12.25, 4.75, 1
4911, 12.5, 4.75, 1
4912, 12.75, 4.75, 1
4913, 13, 4.75, 1
4914, 13.25, 4.75, 1
4915, 13.5, 4.75, 1
4916, 13.75, 4.75, 1
4917, 14, 4.75, 1
4918, 14.25, 4.75, 1
4919, 14.5, 4.75, 1
4920, 14.75, 4.75, 1
4921, 15, 4.75, 1
4922, 15.25, 4.75, 1
4923, 15.5, 4.75, 1
4924, 15.75, 4.75, 1
4925, 16, 4.75, 1
4926, 16.25, 4.75, 1
4927, 16.5, 4.75, 1
4928, 16.75, 4.75, 1
4929, 17, 4.75, 1
4930, 17.25, 4.75, 1
4931, 17.5, 4.75, 1
4932, 17.75, 4.75, 1
4933, 18, 4.75, 1
4934, 18.25, 4.75, 1
4935, 18.5, 4.75, 1
4936, 18.75, 4.75, 1
4937, 19, 4.75, 1
4938, 19.25, 4.75, 1
4939, 19.5, 4.75, 1
4940, 19.75, 4.75, 1
4941, 20, 4.75, 1
4942, 0, 5, 1
4943, 0.25, 5, 1
4944, 0.5, 5, 1
4945, 0.75, 5, 1
4946, 1, 5, 1
4947, 1.25, 5, 1
4948, 1.5, 5, 1
4949, 1.75, 5, 1
4950, 2, 5, 1
4951, 2.25, 5, 1
4952, 2.5, 5, 1
4953, 2.75, 5, 1
4954, 3, 5, 1
4955, 3.25, 5, 1
4956, 3.5, 5, 1
4957, 3.75, 5, 1
4958, 4, 5, 1
4959, 4.25, 5, 1
4960, 4.5, 5, 1
4961, 4.75, 5, 1
4962, 5, 5, 1
4963, 5.25, 5, 1
4964, 5.5, 5, 1
4965, 5.75, 5, 1
4966, 6, 5, 1
4967, 6.25, 5, 1
4968, 6.5, 5, 1
4969, 6.75, 5, 1
4970, 7, 5, 1
4971, 7.25, 5, 1
4972, 7.5, 5, 1
4973, 7.75, 5, 1
4974, 8, 5, 1
4975, 8.25, 5, 1
4976, 8.5, 5, 1
4977, 8.75, 5, 1
4978, 9, 5, 1
4979, 9.25, 5, 1
4980, 9.5, 5, 1
4981, 9.75, 5, 1
4982, 10, 5, 1
4983, 10.25, 5, 1
4984, 10.5, 5, 1
4985, 10.75, 5, 1
4986, 11, 5, 1
4987, 11.25, 5, 1
4988, 11.5, 5, 1
4989, 11.75, 5, 1
4990, 12, 5, 1
4991, 12.25, 5, 1
4992, 12.5, 5, 1
4993, 12.75, 5, 1
4994, 13, 5, 1
4995, 13.25, 5, 1
4996, 13.5, 5, 1
4997, 13.75, 5, 1
4998, 14, 5, 1
4999, 14.25, 5, 1
5000, 14.5, 5, 1
5001, 14.75, 5, 1
5002, 15, 5, 1
5003, 15.25, 5, 1
5004, 15.5, 5, 1
5005, 15.75, 5, 1
5006, 16, 5, 1
5007, 16.25, 5, 1
5008, 16.5, 5, 1
5009, 16.75, 5, 1
5010, 17, 5, 1
5011, 17.25, 5, 1
5012, 17.5, 5, 1
5013, 17.75, 5, 1
5014, 18, 5, 1
5015, 18.25, 5, 1
5016, 18.5, 5, 1
5017, 18.75, 5, 1
5018, 19, 5, 1
5019, 19.25, 5, 1
5020, 19.5, 5, 1
5021, 19.75, 5, 1
5022, 20, 5, 1
5023, 0, 5.25, 1
5024, 0.25, 5.25, 1
5025, 0.5, 5.25, 1
5026, 0.75, 5.25, 1
5027, 1, 5.25, 1
5028, 1.25, 5.25, 1
5029, 1.5, 5.25, 1
5030, 1.75, 5.25, 1
5031, 2, 5.25, 1
5032, 2.25, 5.25, 1
5033, 2.5, 5.25, 1
5034, 2.75, 5.25, 1
5035, 3, 5.25, 1
5036, 3.25, 5.25, 1
5037, 3.5, 5.25, 1
5038, 3.75, 5.25, 1
5039, 4, 5.25, 1
5040, 4.25, 5.25, 1
5041, 4.5, 5.25, 1
5042, 4.75, 5.25, 1
5043, 5, 5.25, 1
5044, 5.25, 5.25, 1
5045, 5.5, 5.25, 1
5046, 5.75, 5.25, 1
5047, 6, 5.25, 1
5048, 6.25, 5.25, 1
5049, 6.5, 5.25, 1
5050, 6.75, 5.25, 1
5051, 7, 5.25, 1
5052, 7.25, 5.25, 1
5053, 7.5, 5.25, 1
5054, 7.75, 5.25, 1
5055, 8, 5.25, 1
5056, 8.25, 5.25, 1
5057, 8.5, 5.25, 1
5058, 8.75, 5.25, 1
5059, 9, 5.25, 1
5060, 9.25, 5.25, 1
5061, 9.5, 5.25, 1
5062, 9.75, 5.25, 1
5063, 10, 5.25, 1
5064, 10.25, 5.25, 1
5065, 10.5, 5.25, 1
5066, 10.75, 5.25, 1
5067, 11, 5.25, 1
5068, 11.25, 5.25, 1
5069, 11.5, 5.25, 1
5070, 11.75, 5.25, 1
5071, 12, 5.25, 1
5072, 12.25, 5.25, 1
5073, 12.5, 5.25, 1
5074, 12.75, 5.25, 1
5075, 13, 5.25, 1
5076, 13.25, 5.25, 1
5077, 13.5, 5.25, 1
5078, 13.75, 5.25, 1
5079, 14, 5.25, 1
5080, 14.25, 5.25, 1
5081, 14.5, 5.25, 1
5082, 14.75, 5.25, 1
5083, 15, 5.25, 1
5084, 15.25, 5.25, 1
5085, 15.5, 5.25, 1
5086, 15.75, 5.25, 1
5087, 16, 5.25, 1
5088, 16.25, 5.25, 1
5089, 16.5, 5.25, 1
5090, 16.75, 5.25, 1
5091, 17, 5.25, 1
5092, 17.25, 5.25, 1
5093, 17.5, 5.25, 1
5094, 17.75, 5.25, 1
5095, 18, 5.25, 1
5096, 18.25, 5.25, 1
5097, 18.5, 5.25, 1
5098, 18.75, 5.25, 1
5099, 19, 5.25, 1
5100, 19.25, 5.25, 1
5101, 19.5, 5.25, 1
5102, 19.75, 5.25, 1
5103, 20, 5.25, 1
5104, 0, 5.5, 1
5105, 0.25, 5.5, 1
5106, 0.5, 5.5, 1
5107, 0.75, 5.5, 1
5108, 1, 5.5, 1
5109, 1.25, 5.5, 1
5110, 1.5, 5.5, 1
5111, 1.75, 5.5, 1
5112, 2, 5.5, 1
5113, 2.25, 5.5, 1
5114, 2.5, 5.5, 1
5115, 2.75, 5.5, 1
5116, 3, 5.5, 1
5117, 3.25, 5.5, 1
5118, 3.5, 5.5, 1
5119, 3.75, 5.5, 1
5120, 4, 5.5, 1
5121, 4.25, 5.5, 1
5122, 4.5, 5.5, 1
5123, 4.75, 5.5, 1
5124, 5, 5.5, 1
5125, 5.25, 5.5, 1
5126, 5.5, 5.5, 1
5127, 5.75, 5.5, 1
5128, 6, 5.5, 1
5129, 6.25, 5.5, 1
5130, 6.5, 5.5, 1
5131, 6.75, 5.5, 1
5132, 7, 5.5, 1
5133, 7.25, 5.5, 1
5134, 7.5, 5.5, 1
5135, 7.75, 5.5, 1
5136, 8, 5.5, 1
5137, 8.25, 5.5, 1
5138, 8.5, 5.5, 1
5139, 8.75, 5.5, 1
5140, 9, 5.5, 1
5141, 9.25, 5.5, 1
5142, 9.5, 5.5, 1
5143, 9.75, 5.5, 1
5144, 10, 5.5, 1
5145, 10.25, 5.5, 1
5146, 10.5, 5.5, 1
5147, 10.75, 5.5, 1
5148, 11, 5.5, 1
5149, 11.25, 5.5, 1
5150, 11.5, 5.5, 1
5151, 11.75, 5.5, 1
5152, 12, 5.5, 1
5153, 12.25, 5.5, 1
5154, 12.5, 5.5, 1
5155, 12.75, 5.5, 1
5156, 13, 5.5, 1
5157, 13.25, 5.5, 1
5158, 13.5, 5.5, 1
5159, 13.75, 5.5, 1
5160, 14, 5.5, 1
5161, 14.25, 5.5, 1
5162, 14.5, 5.5, 1
5163, 14.75, 5.5, 1
5164, 15, 5.5, 1
5165, 15.25, 5.5, 1
5166, 15.5, 5.5, 1
5167, 15.75, 5.5, 1
5168, 16, 5.5, 1
5169, 16.25, 5.5, 1
5170, 16.5, 5.5, 1
5171, 16.75, 5.5, 1
5172, 17, 5.5, 1
5173, 17.25, 5.5, 1
5174, 17.5, 5.5, 1
5175, 17.75, 5.5, 1
5176, 18, 5.5, 1
5177, 18.25, 5.5, 1
5178, 18.5, 5.5, 1
5179, 18.75, 5.5, 1
5180, 19, 5.5, 1
5181, 19.25, 5.5, 1
5182, 19.5, 5.5, 1
5183, 19.75, 5.5, 1
5184, 20, 5.5, 1
5185, 0, 5.75, 1
5186, 0.25, 5.75, 1
5187, 0.5, 5.75, 1
5188, 0.75, 5.75, 1
5189, 1, 5.75, 1
5190, 1.25, 5.75, 1
5191, 1.5, 5.75, 1
5192, 1.75, 5.75, 1
5193, 2, 5.75, 1
5194, 2.25, 5.75, 1
5195, 2.5, 5.75, 1
5196, 2.75, 5.75, 1
5197, 3, 5.75, 1
5198, 3.25, 5.75, 1
5199, 3.5, 5.75, 1
5200, 3.75, 5.75, 1
5201, 4, 5.75, 1
5202, 4.25, 5.75, 1
5203, 4.5, 5.75, 1
5204, 4.75, 5.75, 1
5205, 5, 5.75, 1
5206, 5.25, 5.75, 1
5207, 5.5, 5.75, 1
5208, 5.75, 5.75, 1
5209, 6, 5.75, 1
5210, 6.25, 5.75, 1
5211, 6.5, 5.75, 1
5212, 6.75, 5.75, 1
5213, 7, 5.75, 1
5214, 7.25, 5.75, 1
5215, 7.5, 5.75, 1
5216, 7.75, 5.75, 1
5217, 8, 5.75, 1
5218, 8.25, 5.75, 1
5219, 8.5, 5.75, 1
5220, 8.75, 5.75, 1
5221, 9, 5.75, 1
5222, 9.25, 5.75, 1
5223, 9.5, 5.75, 1
5224, 9.75, 5.75, 1
5225, 10, 5.75, 1
5226, 10.25, 5.75, 1
5227, 10.5, 5.75, 1
5228, 10.75, 5.75, 1
5229, 11, 5.75, 1
5230, 11.25, 5.75, 1
5231, 11.5, 5.75, 1
5232, 11.75, 5.75, 1
5233, 12, 5.75, 1
5234, 12.25, 5.75, 1
5235, 12.5, 5.75, 1
5236, 12.75, 5.75, 1
5237, 13, 5.75, 1
5238, 13.25, 5.75, 1
5239, 13.5, 5.75, 1
5240, 13.75, 5.75, 1
5241, 14, 5.75, 1
5242, 14.25, 5.75, 1
5243, 14.5, 5.75, 1
5244, 14.75, 5.75, 1
5245, 15, 5.75, 1
5246, 15.25, 5.75, 1
5247, 15.5, 5.75, 1
5248, 15.75, 5.75, 1
5249, 16, 5.75, 1
5250, 16.25, 5.75, 1
5251, 16.5, 5.75, 1
5252, 16.75, 5.75, 1
5253, 17, 5.75, 1
5254, 17.25, 5.75, 1
5255, 17.5, 5.75, 1
5256, 17.75, 5.75, 1
5257, 18, 5.75, 1
5258, 18.25, 5.75, 1
5259, 18.5, 5.75, 1
5260, 18.75, 5.75, 1
5261, 19, 5.75, 1
5262, 19.25, 5.75, 1
5263, 19.5, 5.75, 1
5264, 19.75, 5.75, 1
5265, 20, 5.75, 1
5266, 0, 6, 1
5267, 0.25, 6, 1
5268, 0.5, 6, 1
5269, 0.75, 6, 1
5270, 1, 6, 1
5271, 1.25, 6, 1
5272, 1.5, 6, 1
5273, 1.75, 6, 1
5274, 2, 6, 1
5275, 2.25, 6, 1
5276, 2.5, 6, 1
5277, 2.75, 6, 1
5278, 3, 6, 1
5279, 3.25, 6, 1
5280, 3.5, 6, 1
5281, 3.75, 6, 1
5282, 4, 6, 1
5283, 4.25, 6, 1
5284, 4.5, 6, 1
5285, 4.75, 6, 1
5286, 5, 6, 1
5287, 5.25, 6, 1
5288, 5.5, 6, 1
5289, 5.75, 6, 1
5290, 6, 6, 1
5291, 6.25, 6, 1
5292, 6.5, 6, 1
5293, 6.75, 6, 1
5294, 7, 6, 1
5295, 7.25, 6, 1
5296, 7.5, 6, 1
5297, 7.75, 6, 1
5298, 8, 6, 1
5299, 8.25, 6, 1
5300, 8.5, 6, 1
5301, 8.75, 6, 1
5302, 9, 6, 1
5303, 9.25, 6, 1
5304, 9.5, 6, 1
5305, 9.75, 6, 1
5306, 10, 6, 1
5307, 10.25, 6, 1
5308, 10.5, 6, 1
5309, 10.75, 6, 1
5310, 11, 6, 1
5311, 11.25, 6, 1
5312, 11.5, 6, 1
5313, 11.75, 6, 1
5314, 12, 6, 1
5315, 12.25, 6, 1
5316, 12.5, 6, 1
5317, 12.75, 6, 1
5318, 13, 6, 1
5319, 13.25, 6, 1
5320, 13.5, 6, 1
5321, 13.75, 6, 1
5322, 14, 6, 1
5323, 14.25, 6, 1
5324, 14.5, 6, 1
5325, 14.75, 6, 1
5326, 15, 6, 1
5327, 15.25, 6, 1
5328, 15.5, 6, 1
5329, 15.75, 6, 1
5330, 16, 6, 1
5331, 16.25, 6, 1
5332, 16.5, 6, 1
5333, 16.75, 6, 1
5334, 17, 6, 1
5335, 17.25, 6, 1
5336, 17.5, 6, 1
5337, 17.75, 6, 1
5338, 18, 6, 1
5339, 18.25, 6, 1
5340, 18.5, 6, 1
5341, 18.75, 6, 1
5342, 19, 6, 1
5343, 19.25, 6, 1
5344, 19.5, 6, 1
5345, 19.75, 6, 1
5346, 20, 6, 1
5347, 0, 6.25, 1
5348, 0.25, 6.25, 1
5349, 0.5, 6.25, 1
5350, 0.75, 6.25, 1
5351, 1, 6.25, 1
5352, 1.25, 6.25, 1
5353, 1.5, 6.25, 1
5354, 1.75, 6.25, 1
5355, 2, 6.25, 1
5356, 2.25, 6.25, 1
5357, 2.5, 6.25, 1
5358, 2.75, 6.25, 1
5359, 3, 6.25, 1
5360, 3.25, 6.25, 1
5361, 3.5, 6.25, 1
5362, 3.75, 6.25, 1
5363, 4, 6.25, 1
5364, 4.25, 6.25, 1
5365, 4.5, 6.25, 1
5366, 4.75, 6.25, 1
5367, 5, 6.25, 1
5368, 5.25, 6.25, 1
5369, 5.5, 6.25, 1
5370, 5.75, 6.25, 1
5371, 6, 6.25, 1
5372, 6.25, 6.25, 1
5373, 6.5, 6.25, 1
5374, 6.75, 6.25, 1
5375, 7, 6.25, 1
5376, 7.25, 6.25, 1
5377, 7.5, 6.25, 1
5378, 7.75, 6.25, 1
5379, 8, 6.25, 1
5380, 8.25, 6.25, 1
5381, 8.5, 6.25, 1
5382, 8.75, 6.25, 1
5383, 9, 6.25, 1
5384, 9.25, 6.25, 1
5385, 9.5, 6.25, 1
5386, 9.75, 6.25, 1
5387, 10, 6.25, 1
5388, 10.25, 6.25, 1
5389, 10.5, 6.25, 1
5390, 10.75, 6.25, 1
5391, 11, 6.25, 1
5392, 11.25, 6.25, 1
5393, 11.5, 6.25, 1
5394, 11.75, 6.25, 1
5395, 12, 6.25, 1
5396, 12.25, 6.25, 1
5397, 12.5, 6.25, 1
5398, 12.75, 6.25, 1
5399, 13, 6.25, 1
5400, 13.25, 6.25, 1
5401, 13.5, 6.25, 1
5402, 13.75, 6.25, 1
5403, 14, 6.25, 1
5404, 14.25, 6.25, 1
5405, 14.5, 6.25, 1
5406, 14.75, 6.25, 1
5407, 15, 6.25, 1
5408, 15.25, 6.25, 1
5409, 15.5, 6.25, 1
5410, 15.75, 6.25, 1
5411, 16, 6.25, 1
5412, 16.25, 6.25, 1
5413, 16.5, 6.25, 1
5414, 16.75, 6.25, 1
5415, 17, 6.25, 1
5416, 17.25, 6.25, 1
5417, 17.5, 6.25, 1
5418, 17.75, 6.25, 1
5419, 18, 6.25, 1
5420, 18.25, 6.25, 1
5421, 18.5, 6.25, 1
5422, 18.75, 6.25, 1
5423, 19, 6.25, 1
5424, 19.25, 6.25, 1
5425, 19.5, 6.25, 1
5426, 19.75, 6.25, 1
5427, 20, 6.25, 1
5428, 0, 6.5, 1
5429, 0.25, 6.5, 1
5430, 0.5, 6.5, 1
5431, 0.75, 6.5, 1
5432, 1, 6.5, 1
5433, 1.25, 6.5, 1
5434, 1.5, 6.5, 1
5435, 1.75, 6.5, 1
5436, 2, 6.5, 1
5437, 2.25, 6.5, 1
5438, 2.5, 6.5, 1
5439, 2.75, 6.5, 1
5440, 3, 6.5, 1
5441, 3.25, 6.5, 1
5442, 3.5, 6.5, 1
5443, 3.75, 6.5, 1
5444, 4, 6.5, 1
5445, 4.25, 6.5, 1
5446, 4.5, 6.5, 1
5447, 4.75, 6.5, 1
5448, 5, 6.5, 1
5449, 5.25, 6.5, 1
5450, 5.5, 6.5, 1
5451, 5.75, 6.5, 1
5452, 6, 6.5, 1
5453, 6.25, 6.5, 1
5454, 6.5, 6.5, 1
5455, 6.75, 6.5, 1
5456, 7, 6.5, 1
5457, 7.25, 6.5, 1
5458, 7.5, 6.5, 1
5459, 7.75, 6.5, 1
5460, 8, 6.5, 1
5461, 8.25, 6.5, 1
5462, 8.5, 6.5, 1
5463, 8.75, 6.5, 1
5464, 9, 6.5, 1
5465, 9.25, 6.5, 1
5466, 9.5, 6.5, 1
5467, 9.75, 6.5, 1
5468, 10, 6.5, 1
5469, 10.25, 6.5, 1
5470, 10.5, 6.5, 1
5471, 10.75, 6.5, 1
5472, 11, 6.5, 1
5473, 11.25, 6.5, 1
5474, 11.5, 6.5, 1
5475, 11.75, 6.5, 1
5476, 12, 6.5, 1
5477, 12.25, 6.5, 1
5478, 12.5, 6.5, 1
5479, 12.75, 6.5, 1
5480, 13, 6.5, 1
5481, 13.25, 6.5, 1
5482, 13.5, 6.5, 1
5483, 13.75, 6.5, 1
5484, 14, 6.5, 1
5485, 14.25, 6.5, 1
5486, 14.5, 6.5, 1
5487, 14.75, 6.5, 1
5488, 15, 6.5, 1
5489, 15.25, 6.5, 1
5490, 15.5, 6.5, 1
5491, 15.75, 6.5, 1
5492, 16, 6.5, 1
5493, 16.25, 6.5, 1
5494, 16.5, 6.5, 1
5495, 16.75, 6.5, 1
5496, 17, 6.5, 1
5497, 17.25, 6.5, 1
5498, 17.5, 6.5, 1
5499, 17.75, 6.5, 1
5500, 18, 6.5, 1
5501, 18.25, 6.5, 1
5502, 18.5, 6.5, 1
5503, 18.75, 6.5, 1
5504, 19, 6.5, 1
5505, 19.25, 6.5, 1
5506, 19.5, 6.5, 1
5507, 19.75, 6.5, 1
5508, 20, 6.5, 1
5509, 0, 6.75, 1
5510, 0.25, 6.75, 1
5511, 0.5, 6.75, 1
5512, 0.75, 6.75, 1
5513, 1, 6.75, 1
5514, 1.25, 6.75, 1
5515, 1.5, 6.75, 1
5516, 1.75, 6.75, 1
5517, 2, 6.75, 1
5518, 2.25, 6.75, 1
5519, 2.5, 6.75, 1
5520, 2.75, 6.75, 1
5521, 3, 6.75, 1
5522, 3.25, 6.75, 1
5523, 3.5, 6.75, 1
5524, 3.75, 6.75, 1
5525, 4, 6.75, 1
5526, 4.25, 6.75, 1
5527, 4.5, 6.75, 1
5528, 4.75, 6.75, 1
5529, 5, 6.75, 1
5530, 5.25, 6.75, 1
5531, 5.5, 6.75, 1
5532, 5.75, 6.75, 1
5533, 6, 6.75, 1
5534, 6.25, 6.75, 1
5535, 6.5, 6.75, 1
5536, 6.75, 6.75, 1
5537, 7, 6.75, 1
5538, 7.25, 6.75, 1
5539, 7.5, 6.75, 1
5540, 7.75, 6.75, 1
5541, 8, 6.75, 1
5542, 8.25, 6.75, 1
5543, 8.5, 6.75, 1
5544, 8.75, 6.75, 1
5545, 9, 6.75, 1
5546, 9.25, 6.75, 1
5547, 9.5, 6.75, 1
5548, 9.75, 6.75, 1
5549, 10, 6.75, 1
5550, 10.25, 6.75, 1
5551, 10.5, 6.75, 1
5552, 10.75, 6.75, 1
5553, 11, 6.75, 1
5554, 11.25, 6.75, 1
5555, 11.5, 6.75, 1
5556, 11.75, 6.75, 1
5557, 12, 6.75, 1
5558, 12.25, 6.75, 1
5559, 12.5, 6.75, 1
5560, 12.75, 6.75, 1
5561, 13, 6.75, 1
5562, 13.25, 6.75, 1
5563, 13.5, 6.75, 1
5564, 13.75, 6.75, 1
5565, 14, 6.75, 1
5566, 14.25, 6.75, 1
5567, 14.5, 6.75, 1
5568, 14.75, 6.75, 1
5569, 15, 6.75, 1
5570, 15.25, 6.75, 1
5571, 15.5, 6.75, 1
5572, 15.75, 6.75, 1
5573, 16, 6.75, 1
5574, 16.25, 6.75, 1
5575, 16.5, 6.75, 1
5576, 16.75, 6.75, 1
5577, 17, 6.75, 1
5578, 17.25, 6.75, 1
5579, 17.5, 6.75, 1
5580, 17.75, 6.75, 1
5581, 18, 6.75, 1
5582, 18.25, 6.75, 1
5583, 18.5, 6.75, 1
5584, 18.75, 6.75, 1
5585, 19, 6.75, 1
5586, 19.25, 6.75, 1
5587, 19.5, 6.75, 1
5588, 19.75, 6.75, 1
5589, 20, 6.75, 1
5590, 0, 7, 1
5591, 0.25, 7, 1
5592, 0.5, 7, 1
5593, 0.75, 7, 1
5594, 1, 7, 1
5595, 1.25, 7, 1
5596, 1.5, 7, 1
5597, 1.75, 7, 1
5598, 2, 7, 1
5599, 2.25, 7, 1
5600, 2.5, 7, 1
5601, 2.75, 7, 1
5602, 3, 7, 1
5603, 3.25, 7, 1
5604, 3.5, 7, 1
5605, 3.75, 7, 1
5606, 4, 7, 1
5607, 4.25, 7, 1
5608, 4.5, 7, 1
5609, 4.75, 7, 1
5610, 5, 7, 1
5611, 5.25, 7, 1
5612, 5.5, 7, 1
5613, 5.75, 7, 1
5614, 6, 7, 1
5615, 6.25, 7, 1
5616, 6.5, 7, 1
5617, 6.75, 7, 1
5618, 7, 7, 1
5619, 7.25, 7, 1
5620, 7.5, 7, 1
5621, 7.75, 7, 1
5622, 8, 7, 1
5623, 8.25, 7, 1
5624, 8.5, 7, 1
5625, 8.75, 7, 1
5626, 9, 7, 1
5627, 9.25, 7, 1
5628, 9.5, 7, 1
5629, 9.75, 7, 1
5630, 10, 7, 1
5631, 10.25, 7, 1
5632, 10.5, 7, 1
5633, 10.75, 7, 1
5634, 11, 7, 1
5635, 11.25, 7, 1
5636, 11.5, 7, 1
5637, 11.75, 7, 1
5638, 12, 7, 1
5639, 12.25, 7, 1
5640, 12.5, 7, 1
5641, 12.75, 7, 1
5642, 13, 7, 1
5643, 13.25, 7, 1
5644, 13.5, 7, 1
5645, 13.75, 7, 1
5646, 14, 7, 1
5647, 14.25, 7, 1
5648, 14.5, 7, 1
5649, 14.75, 7, 1
5650, 15, 7, 1
5651, 15.25, 7, 1
5652, 15.5, 7, 1
5653, 15.75, 7, 1
5654, 16, 7, 1
5655, 16.25, 7, 1
5656, 16.5, 7, 1
5657, 16.75, 7, 1
5658, 17, 7, 1
5659, 17.25, 7, 1
5660, 17.5, 7, 1
5661, 17.75, 7, 1
5662, 18, 7, 1
5663, 18.25, 7, 1
5664, 18.5, 7, 1
5665, 18.75, 7, 1
5666, 19, 7, 1
5667, 19.25, 7, 1
5668, 19.5, 7, 1
5669, 19.75, 7, 1
5670, 20, 7, 1
5671, 0, 7.25, 1
5672, 0.25, 7.25, 1
5673, 0.5, 7.25, 1
5674, 0.75, 7.25, 1
5675, 1, 7.25, 1
5676, 1.25, 7.25, 1
5677, 1.5, 7.25, 1
5678, 1.75, 7.25, 1
5679, 2, 7.25, 1
5680, 2.25, 7.25, 1
5681, 2.5, 7.25, 1
5682, 2.75, 7.25, 1
5683, 3, 7.25, 1
5684, 3.25, 7.25, 1
5685, 3.5, 7.25, 1
5686, 3.75, 7.25, 1
5687, 4, 7.25, 1
5688, 4.25, 7.25, 1
5689, 4.5, 7.25, 1
5690, 4.75, 7.25, 1
5691, 5, 7.25, 1
5692, 5.25, 7.25, 1
5693, 5.5, 7.25, 1
5694, 5.75, 7.25, 1
5695, 6, 7.25, 1
5696, 6.25, 7.25, 1
5697, 6.5, 7.25, 1
5698, 6.75, 7.25, 1
5699, 7, 7.25, 1
5700, 7.25, 7.25, 1
5701, 7.5, 7.25, 1
5702, 7.75, 7.25, 1
5703, 8, 7.25, 1
5704, 8.25, 7.25, 1
5705, 8.5, 7.25, 1
5706, 8.75, 7.25, 1
5707, 9, 7.25, 1
5708, 9.25, 7.25, 1
5709, 9.5, 7.25, 1
5710, 9.75, 7.25, 1
5711, 10, 7.25, 1
5712, 10.25, 7.25, 1
5713, 10.5, 7.25, 1
5714, 10.75, 7.25, 1
5715, 11, 7.25, 1
5716, 11.25, 7.25, 1
5717, 11.5, 7.25, 1
5718, 11.75, 7.25, 1
5719, 12, 7.25, 1
5720, 12.25, 7.25, 1
5721, 12.5, 7.25, 1
5722, 12.75, 7.25, 1
5723, 13, 7.25, 1
5724, 13.25, 7.25, 1
5725, 13.5, 7.25, 1
5726, 13.75, 7.25, 1
5727, 14, 7.25, 1
5728, 14.25, 7.25, 1
5729, 14.5, 7.25, 1
5730, 14.75, 7.25, 1
5731, 15, 7.25, 1
5732, 15.25, 7.25, 1
5733, 15.5, 7.25, 1
5734, 15.75, 7.25, 1
5735, 16, 7.25, 1
5736, 16.25, 7.25, 1
5737, 16.5, 7.25, 1
5738, 16.75, 7.25, 1
5739, 17, 7.25, 1
5740, 17.25, 7.25, 1
5741, 17.5, 7.25, 1
5742, 17.75, 7.25, 1
5743, 18, 7.25, 1
5744, 18.25, 7.25, 1
5745, 18.5, 7.25, 1
5746, 18.75, 7.25, 1
5747, 19, 7.25, 1
5748, 19.25, 7.25, 1
5749, 19.5, 7.25, 1
5750, 19.75, 7.25, 1
5751, 20, 7.25, 1
5752, 0, 7.5, 1
5753, 0.25, 7.5, 1
5754, 0.5, 7.5, 1
5755, 0.75, 7.5, 1
5756, 1, 7.5, 1
5757, 1.25, 7.5, 1
5758, 1.5, 7.5, 1
5759, 1.75, 7.5, 1
5760, 2, 7.5, 1
5761, 2.25, 7.5, 1
5762, 2.5, 7.5, 1
5763, 2.75, 7.5, 1
5764, 3, 7.5, 1
5765, 3.25, 7.5, 1
5766, 3.5, 7.5, 1
5767, 3.75, 7.5, 1
5768, 4, 7.5, 1
5769, 4.25, 7.5, 1
5770, 4.5, 7.5, 1
5771, 4.75, 7.5, 1
5772, 5, 7.5, 1
5773, 5.25, 7.5, 1
5774, 5.5, 7.5, 1
5775, 5.75, 7.5, 1
5776, 6, 7.5, 1
5777, 6.25, 7.5, 1
5778, 6.5, 7.5, 1
5779, 6.75, 7.5, 1
5780, 7, 7.5, 1
5781, 7.25, 7.5, 1
5782, 7.5, 7.5, 1
5783, 7.75, 7.5, 1
5784, 8, 7.5, 1
5785, 8.25, 7.5, 1
5786, 8.5, 7.5, 1
5787, 8.75, 7.5, 1
5788, 9, 7.5, 1
5789, 9.25, 7.5, 1
5790, 9.5, 7.5, 1
5791, 9.75, 7.5, 1
5792, 10, 7.5, 1
5793, 10.25, 7.5, 1
5794, 10.5, 7.5, 1
5795, 10.75, 7.5, 1
5796, 11, 7.5, 1
5797, 11.25, 7.5, 1
5798, 11.5, 7.5, 1
5799, 11.75, 7.5, 1
5800, 12, 7.5, 1
5801, 12.25, 7.5, 1
5802, 12.5, 7.5, 1
5803, 12.75, 7.5, 1
5804, 13, 7.5, 1
5805, 13.25, 7.5, 1
5806, 13.5, 7.5, 1
5807, 13.75, 7.5, 1
5808, 14, 7.5, 1
5809, 14.25, 7.5, 1
5810, 14.5, 7.5, 1
5811, 14.75, 7.5, 1
5812, 15, 7.5, 1
5813, 15.25, 7.5, 1
5814, 15.5, 7.5, 1
5815, 15.75, 7.5, 1
5816, 16, 7.5, 1
5817, 16.25, 7.5, 1
5818, 16.5, 7.5, 1
5819, 16.75, 7.5, 1
5820, 17, 7.5, 1
5821, 17.25, 7.5, 1
5822, 17.5, 7.5, 1
5823, 17.75, 7.5, 1
5824, 18, 7.5, 1
5825, 18.25, 7.5, 1
5826, 18.5, 7.5, 1
5827, 18.75, 7.5, 1
5828, 19, 7.5, 1
5829, 19.25, 7.5, 1
5830, 19.5, 7.5, 1
5831, 19.75, 7.5, 1
5832, 20, 7.5, 1
5833, 0, 7.75, 1
5834, 0.25, 7.75, 1
5835, 0.5, 7.75, 1
5836, 0.75, 7.75, 1
5837, 1, 7.75, 1
5838, 1.25, 7.75, 1
5839, 1.5, 7.75, 1
5840, 1.75, 7.75, 1
5841, 2, 7.75, 1
5842, 2.25, 7.75, 1
5843, 2.5, 7.75, 1
5844, 2.75, 7.75, 1
5845, 3, 7.75, 1
5846, 3.25, 7.75, 1
5847, 3.5, 7.75, 1
5848, 3.75, 7.75, 1
5849, 4, 7.75, 1
5850, 4.25, 7.75, 1
5851, 4.5, 7.75, 1
5852, 4.75, 7.75, 1
5853, 5, 7.75, 1
5854, 5.25, 7.75, 1
5855, 5.5, 7.75, 1
5856, 5.75, 7.75, 1
5857, 6, 7.75, 1
5858, 6.25, 7.75, 1
5859, 6.5, 7.75, 1
5860, 6.75, 7.75, 1
5861, 7, 7.75, 1
5862, 7.25, 7.75, 1
5863, 7.5, 7.75, 1
5864, 7.75, 7.75, 1
5865, 8, 7.75, 1
5866, 8.25, 7.75, 1
5867, 8.5, 7.75, 1
5868, 8.75, 7.75, 1
5869, 9, 7.75, 1
5870, 9.25, 7.75, 1
5871, 9.5, 7.75, 1
5872, 9.75, 7.75, 1
5873, 10, 7.75, 1
5874, 10.25, 7.75, 1
5875, 10.5, 7.75, 1
5876, 10.75, 7.75, 1
5877, 11, 7.75, 1
5878, 11.25, 7.75, 1
5879, 11.5, 7.75, 1
5880, 11.75, 7.75, 1
5881, 12, 7.75, 1
5882, 12.25, 7.75, 1
5883, 12.5, 7.75, 1
5884, 12.75, 7.75, 1
5885, 13, 7.75, 1
5886, 13.25, 7.75, 1
5887, 13.5, 7.75, 1
5888, 13.75, 7.75, 1
5889, 14, 7.75, 1
5890, 14.25, 7.75, 1
5891, 14.5, 7.75, 1
5892, 14.75, 7.75, 1
5893, 15, 7.75, 1
5894, 15.25, 7.75, 1
5895, 15.5, 7.75, 1
5896, 15.75, 7.75, 1
5897, 16, 7.75, 1
5898, 16.25, 7.75, 1
5899, 16.5, 7.75, 1
5900, 16.75, 7.75, 1
5901, 17, 7.75, 1
5902, 17.25, 7.75, 1
5903, 17.5, 7.75, 1
5904, 17.75, 7.75, 1
5905, 18, 7.75, 1
5906, 18.25, 7.75, 1
5907, 18.5, 7.75, 1
5908, 18.75, 7.75, 1
5909, 19, 7.75, 1
5910, 19.25, 7.75, 1
5911, 19.5, 7.75, 1
5912, 19.75, 7.75, 1
5913, 20, 7.75, 1
5914, 0, 8, 1
5915, 0.25, 8, 1
5916, 0.5, 8, 1
5917, 0.75, 8, 1
5918, 1, 8, 1
5919, 1.25, 8, 1
5920, 1.5, 8, 1
5921, 1.75, 8, 1
5922, 2, 8, 1
5923, 2.25, 8, 1
5924, 2.5, 8, 1
5925, 2.75, 8, 1
5926, 3, 8, 1
5927, 3.25, 8, 1
5928, 3.5, 8, 1
5929, 3.75, 8, 1
5930, 4, 8, 1
5931, 4.25, 8, 1
5932, 4.5, 8, 1
5933, 4.75, 8, 1
5934, 5, 8, 1
5935, 5.25, 8, 1
5936, 5.5, 8, 1
5937, 5.75, 8, 1
5938, 6, 8, 1
5939, 6.25, 8, 1
5940, 6.5, 8, 1
5941, 6.75, 8, 1
5942, 7, 8, 1
5943, 7.25, 8, 1
5944, 7.5, 8, 1
5945, 7.75, 8, 1
5946, 8, 8, 1
5947, 8.25, 8, 1
5948, 8.5, 8, 1
5949, 8.75, 8, 1
5950, 9, 8, 1
5951, 9.25, 8, 1
5952, 9.5, 8, 1
5953, 9.75, 8, 1
5954, 10, 8, 1
5955, 10.25, 8, 1
5956, 10.5, 8, 1
5957, 10.75, 8, 1
5958, 11, 8, 1
5959, 11.25, 8, 1
5960, 11.5, 8, 1
5961, 11.75, 8, 1
5962, 12, 8, 1
5963, 12.25, 8, 1
5964, 12.5, 8, 1
5965, 12.75, 8, 1
5966, 13, 8, 1
5967, 13.25, 8, 1
5968, 13.5, 8, 1
5969, 13.75, 8, 1
5970, 14, 8, 1
5971, 14.25, 8, 1
5972, 14.5, 8, 1
5973, 14.75, 8, 1
5974, 15, 8, 1
5975, 15.25, 8, 1
5976, 15.5, 8, 1
5977, 15.75, 8, 1
5978, 16, 8, 1
5979, 16.25, 8, 1
5980, 16.5, 8, 1
5981, 16.75, 8, 1
5982, 17, 8, 1
5983, 17.25, 8, 1
5984, 17.5, 8, 1
5985, 17.75, 8, 1
5986, 18, 8, 1
5987, 18.25, 8, 1
5988, 18.5, 8, 1
5989, 18.75, 8, 1
5990, 19, 8, 1
5991, 19.25, 8, 1
5992, 19.5, 8, 1
5993, 19.75, 8, 1
5994, 20, 8, 1
5995, 0, 8.25, 1
5996, 0.25, 8.25, 1
5997, 0.5, 8.25, 1
5998, 0.75, 8.25, 1
5999, 1, 8.25, 1
6000, 1.25, 8.25, 1
6001, 1.5, 8.25, 1
6002, 1.75, 8.25, 1
6003, 2, 8.25, 1
6004, 2.25, 8.25, 1
6005, 2.5, 8.25, 1
6006, 2.75, 8.25, 1
6007, 3, 8.25, 1
6008, 3.25, 8.25, 1
6009, 3.5, 8.25, 1
6010, 3.75, 8.25, 1
6011, 4, 8.25, 1
6012, 4.25, 8.25, 1
6013, 4.5, 8.25, 1
6014, 4.75, 8.25, 1
6015, 5, 8.25, 1
6016, 5.25, 8.25, 1
6017, 5.5, 8.25, 1
6018, 5.75, 8.25, 1
6019, 6, 8.25, 1
6020, 6.25, 8.25, 1
6021, 6.5, 8.25, 1
6022, 6.75, 8.25, 1
6023, 7, 8.25, 1
6024, 7.25, 8.25, 1
6025, 7.5, 8.25, 1
6026, 7.75, 8.25, 1
6027, 8, 8.25, 1
6028, 8.25, 8.25, 1
6029, 8.5, 8.25, 1
6030, 8.75, 8.25, 1
6031, 9, 8.25, 1
6032, 9.25, 8.25, 1
6033, 9.5, 8.25, 1
6034, 9.75, 8.25, 1
6035, 10, 8.25, 1
6036, 10.25, 8.25, 1
6037, 10.5, 8.25, 1
6038, 10.75, 8.25, 1
6039, 11, 8.25, 1
6040, 11.25, 8.25, 1
6041, 11.5, 8.25, 1
6042, 11.75, 8.25, 1
6043, 12, 8.25, 1
6044, 12.25, 8.25, 1
6045, 12.5, 8.25, 1
6046, 12.75, 8.25, 1
6047, 13, 8.25, 1
6048, 13.25, 8.25, 1
6049, 13.5, 8.25, 1
6050, 13.75, 8.25, 1
6051, 14, 8.25, 1
6052, 14.25, 8.25, 1
6053, 14.5, 8.25, 1
6054, 14.75, 8.25, 1
6055, 15, 8.25, 1
6056, 15.25, 8.25, 1
6057, 15.5, 8.25, 1
6058, 15.75, 8.25, 1
6059, 16, 8.25, 1
6060, 16.25, 8.25, 1
6061, 16.5, 8.25, 1
6062, 16.75, 8.25, 1
6063, 17, 8.25, 1
6064, 17.25, 8.25, 1
6065, 17.5, 8.25, 1
6066, 17.75, 8.25, 1
6067, 18, 8.25, 1
6068, 18.25, 8.25, 1
6069, 18.5, 8.25, 1
6070, 18.75, 8.25, 1
6071, 19, 8.25, 1
6072, 19.25, 8.25, 1
6073, 19.5, 8.25, 1
6074, 19.75, 8.25, 1
6075, 20, 8.25, 1
6076, 0, 8.5, 1
6077, 0.25, 8.5, 1
6078, 0.5, 8.5, 1
6079, 0.75, 8.5, 1
6080, 1, 8.5, 1
6081, 1.25, 8.5, 1
6082, 1.5, 8.5, 1
6083, 1.75, 8.5, 1
6084, 2, 8.5, 1
6085, 2.25, 8.5, 1
6086, 2.5, 8.5, 1
6087, 2.75, 8.5, 1
6088, 3, 8.5, 1
6089, 3.25, 8.5, 1
6090, 3.5, 8.5, 1
6091, 3.75, 8.5, 1
6092, 4, 8.5, 1
6093, 4.25, 8.5, 1
6094, 4.5, 8.5, 1
6095, 4.75, 8.5, 1
6096, 5, 8.5, 1
6097, 5.25, 8.5, 1
6098, 5.5, 8.5, 1
6099, 5.75, 8.5, 1
6100, 6, 8.5, 1
6101, 6.25, 8.5, 1
6102, 6.5, 8.5, 1
6103, 6.75, 8.5, 1
6104, 7, 8.5, 1
6105, 7.25, 8.5, 1
6106, 7.5, 8.5, 1
6107, 7.75, 8.5, 1
6108, 8, 8.5, 1
6109, 8.25, 8.5, 1
6110, 8.5, 8.5, 1
6111, 8.75, 8.5, 1
6112, 9, 8.5, 1
6113, 9.25, 8.5, 1
6114, 9.5, 8.5, 1
6115, 9.75, 8.5, 1
6116, 10, 8.5, 1
6117, 10.25, 8.5, 1
6118, 10.5, 8.5, 1
6119, 10.75, 8.5, 1
6120, 11, 8.5, 1
6121, 11.25, 8.5, 1
6122, 11.5, 8.5, 1
6123, 11.75, 8.5, 1
6124, 12, 8.5, 1
6125, 12.25, 8.5, 1
6126, 12.5, 8.5, 1
6127, 12.75, 8.5, 1
6128, 13, 8.5, 1
6129, 13.25, 8.5, 1
6130, 13.5, 8.5, 1
6131, 13.75, 8.5, 1
6132, 14, 8.5, 1
6133, 14.25, 8.5, 1
6134, 14.5, 8.5, 1
6135, 14.75, 8.5, 1
6136, 15, 8.5, 1
6137, 15.25, 8.5, 1
6138, 15.5, 8.5, 1
6139, 15.75, 8.5, 1
6140, 16, 8.5, 1
6141, 16.25, 8.5, 1
6142, 16.5, 8.5, 1
6143, 16.75, 8.5, 1
6144, 17, 8.5, 1
6145, 17.25, 8.5, 1
6146, 17.5, 8.5, 1
6147, 17.75, 8.5, 1
6148, 18, 8.5, 1
6149, 18.25, 8.5, 1
6150, 18.5, 8.5, 1
6151, 18.75, 8.5, 1
6152, 19, 8.5, 1
6153, 19.25, 8.5, 1
6154, 19.5, 8.5, 1
6155, 19.75, 8.5, 1
6156, 20, 8.5, 1
6157, 0, 8.75, 1
6158, 0.25, 8.75, 1
6159, 0.5, 8.75, 1
6160, 0.75, 8.75, 1
6161, 1, 8.75, 1
6162, 1.25, 8.75, 1
6163, 1.5, 8.75, 1
6164, 1.75, 8.75, 1
6165, 2, 8.75, 1
6166, 2.25, 8.75, 1
6167, 2.5, 8.75, 1
6168, 2.75, 8.75, 1
6169, 3, 8.75, 1
6170, 3.25, 8.75, 1
6171, 3.5, 8.75, 1
6172, 3.75, 8.75, 1
6173, 4, 8.75, 1
6174, 4.25, 8.75, 1
6175, 4.5, 8.75, 1
6176, 4.75, 8.75, 1
6177, 5, 8.75, 1
6178, 5.25, 8.75, 1
6179, 5.5, 8.75, 1
6180, 5.75, 8.75, 1
6181, 6, 8.75, 1
6182, 6.25, 8.75, 1
6183, 6.5, 8.75, 1
6184, 6.75, 8.75, 1
6185, 7, 8.75, 1
6186, 7.25, 8.75, 1
6187, 7.5, 8.75, 1
6188, 7.75, 8.75, 1
6189, 8, 8.75, 1
6190, 8.25, 8.75, 1
6191, 8.5, 8.75, 1
6192, 8.75, 8.75, 1
6193, 9, 8.75, 1
6194, 9.25, 8.75, 1
6195, 9.5, 8.75, 1
6196, 9.75, 8.75, 1
6197, 10, 8.75, 1
6198, 10.25, 8.75, 1
6199, 10.5, 8.75, 1
6200, 10.75, 8.75, 1
6201, 11, 8.75, 1
6202, 11.25, 8.75, 1
6203, 11.5, 8.75, 1
6204, 11.75, 8.75, 1
6205, 12, 8.75, 1
6206, 12.25, 8.75, 1
6207, 12.5, 8.75, 1
6208, 12.75, 8.75, 1
6209, 13, 8.75, 1
6210, 13.25, 8.75, 1
6211, 13.5, 8.75, 1
6212, 13.75, 8.75, 1
6213, 14, 8.75, 1
6214, 14.25, 8.75, 1
6215, 14.5, 8.75, 1
6216, 14.75, 8.75, 1
6217, 15, 8.75, 1
6218, 15.25, 8.75, 1
6219, 15.5, 8.75, 1
6220, 15.75, 8.75, 1
6221, 16, 8.75, 1
6222, 16.25, 8.75, 1
6223, 16.5, 8.75, 1
6224, 16.75, 8.75, 1
6225, 17, 8.75, 1
6226, 17.25, 8.75, 1
6227, 17.5, 8.75, 1
6228, 17.75, 8.75, 1
6229, 18, 8.75, 1
6230, 18.25, 8.75, 1
6231, 18.5, 8.75, 1
6232, 18.75, 8.75, 1
6233, 19, 8.75, 1
6234, 19.25, 8.75, 1
6235, 19.5, 8.75, 1
6236, 19.75, 8.75, 1
6237, 20, 8.75, 1
6238, 0, 9, 1
6239, 0.25, 9, 1
6240, 0.5, 9, 1
6241, 0.75, 9, 1
6242, 1, 9, 1
6243, 1.25, 9, 1
6244, 1.5, 9, 1
6245, 1.75, 9, 1
6246, 2, 9, 1
6247, 2.25, 9, 1
6248, 2.5, 9, 1
6249, 2.75, 9, 1
6250, 3, 9, 1
6251, 3.25, 9, 1
6252, 3.5, 9, 1
6253, 3.75, 9, 1
6254, 4, 9, 1
6255, 4.25, 9, 1
6256, 4.5, 9, 1
6257, 4.75, 9, 1
6258, 5, 9, 1
6259, 5.25, 9, 1
6260, 5.5, 9, 1
6261, 5.75, 9, 1
6262, 6, 9, 1
6263, 6.25, 9, 1
6264, 6.5, 9, 1
6265, 6.75, 9, 1
6266, 7, 9, 1
6267, 7.25, 9, 1
6268, 7.5, 9, 1
6269, 7.75, 9, 1
6270, 8, 9, 1
6271, 8.25, 9, 1
6272, 8.5, 9, 1
6273, 8.75, 9, 1
6274, 9, 9, 1
6275, 9.25, 9, 1
6276, 9.5, 9, 1
6277, 9.75, 9, 1
6278, 10, 9, 1
6279, 10.25, 9, 1
6280, 10.5, 9, 1
6281, 10.75, 9, 1
6282, 11, 9, 1
6283, 11.25, 9, 1
6284, 11.5, 9, 1
6285, 11.75, 9, 1
6286, 12, 9, 1
6287, 12.25, 9, 1
6288, 12.5, 9, 1
6289, 12.75, 9, 1
6290, 13, 9, 1
6291, 13.25, 9, 1
6292, 13.5, 9, 1
6293, 13.75, 9, 1
6294, 14, 9, 1
6295, 14.25, 9, 1
6296, 14.5, 9, 1
6297, 14.75, 9, 1
6298, 15, 9, 1
6299, 15.25, 9, 1
6300, 15.5, 9, 1
6301, 15.75, 9, 1
6302, 16, 9, 1
6303, 16.25, 9, 1
6304, 16.5, 9, 1
6305, 16.75, 9, 1
6306, 17, 9, 1
6307, 17.25, 9, 1
6308, 17.5, 9, 1
6309, 17.75, 9, 1
6310, 18, 9, 1
6311, 18.25, 9, 1
6312, 18.5, 9, 1
6313, 18.75, 9, 1
6314, 19, 9, 1
6315, 19.25, 9, 1
6316, 19.5, 9, 1
6317, 19.75, 9, 1
6318, 20, 9, 1
6319, 0, 9.25, 1
6320, 0.25, 9.25, 1
6321, 0.5, 9.25, 1
6322, 0.75, 9.25, 1
6323, 1, 9.25, 1
6324, 1.25, 9.25, 1
6325, 1.5, 9.25, 1
6326, 1.75, 9.25, 1
6327, 2, 9.25, 1
6328, 2.25, 9.25, 1
6329, 2.5, 9.25, 1
6330, 2.75, 9.25, 1
6331, 3, 9.25, 1
6332, 3.25, 9.25, 1
6333, 3.5, 9.25, 1
6334, 3.75, 9.25, 1
6335, 4, 9.25, 1
6336, 4.25, 9.25, 1
6337, 4.5, 9.25, 1
6338, 4.75, 9.25, 1
6339, 5, 9.25, 1
6340, 5.25, 9.25, 1
6341, 5.5, 9.25, 1
6342, 5.75, 9.25, 1
6343, 6, 9.25, 1
6344, 6.25, 9.25, 1
6345, 6.5, 9.25, 1
6346, 6.75, 9.25, 1
6347, 7, 9.25, 1
6348, 7.25, 9.25, 1
6349, 7.5, 9.25, 1
6350, 7.75, 9.25, 1
6351, 8, 9.25, 1
6352, 8.25, 9.25, 1
6353, 8.5, 9.25, 1
6354, 8.75, 9.25, 1
6355, 9, 9.25, 1
6356, 9.25, 9.25, 1
6357, 9.5, 9.25, 1
6358, 9.75, 9.25, 1
6359, 10, 9.25, 1
6360, 10.25, 9.25, 1
6361, 10.5, 9.25, 1
6362, 10.75, 9.25, 1
6363, 11, 9.25, 1
6364, 11.25, 9.25, 1
6365, 11.5, 9.25, 1
6366, 11.75, 9.25, 1
6367, 12, 9.25, 1
6368, 12.25, 9.25, 1
6369, 12.5, 9.25, 1
6370, 12.75, 9.25, 1
6371, 13, 9.25, 1
6372, 13.25, 9.25, 1
6373, 13.5, 9.25, 1
6374, 13.75, 9.25, 1
6375, 14, 9.25, 1
6376, 14.25, 9.25, 1
6377, 14.5, 9.25, 1
6378, 14.75, 9.25, 1
6379, 15, 9.25, 1
6380, 15.25, 9.25, 1
6381, 15.5, 9.25, 1
6382, 15.75, 9.25, 1
6383, 16, 9.25, 1
6384, 16.25, 9.25, 1
6385, 16.5, 9.25, 1
6386, 16.75, 9.25, 1
6387, 17, 9.25, 1
6388, 17.25, 9.25, 1
6389, 17.5, 9.25, 1
6390, 17.75, 9.25, 1
6391, 18, 9.25, 1
6392, 18.25, 9.25, 1
6393, 18.5, 9.25, 1
6394, 18.75, 9.25, 1
6395, 19, 9.25, 1
6396, 19.25, 9.25, 1
6397, 19.5, 9.25, 1
6398, 19.75, 9.25, 1
6399, 20, 9.25, 1
6400, 0, 9.5, 1
6401, 0.25, 9.5, 1
6402, 0.5, 9.5, 1
6403, 0.75, 9.5, 1
6404, 1, 9.5, 1
6405, 1.25, 9.5, 1
6406, 1.5, 9.5, 1
6407, 1.75, 9.5, 1
6408, 2, 9.5, 1
6409, 2.25, 9.5, 1
6410, 2.5, 9.5, 1
6411, 2.75, 9.5, 1
6412, 3, 9.5, 1
6413, 3.25, 9.5, 1
6414, 3.5, 9.5, 1
6415, 3.75, 9.5, 1
6416, 4, 9.5, 1
6417, 4.25, 9.5, 1
6418, 4.5, 9.5, 1
6419, 4.75, 9.5, 1
6420, 5, 9.5, 1
6421, 5.25, 9.5, 1
6422, 5.5, 9.5, 1
6423, 5.75, 9.5, 1
6424, 6, 9.5, 1
6425, 6.25, 9.5, 1
6426, 6.5, 9.5, 1
6427, 6.75, 9.5, 1
6428, 7, 9.5, 1
6429, 7.25, 9.5, 1
6430, 7.5, 9.5, 1
6431, 7.75, 9.5, 1
6432, 8, 9.5, 1
6433, 8.25, 9.5, 1
6434, 8.5, 9.5, 1
6435, 8.75, 9.5, 1
6436, 9, 9.5, 1
6437, 9.25, 9.5, 1
6438, 9.5, 9.5, 1
6439, 9.75, 9.5, 1
6440, 10, 9.5, 1
6441, 10.25, 9.5, 1
6442, 10.5, 9.5, 1
6443, 10.75, 9.5, 1
6444, 11, 9.5, 1
6445, 11.25, 9.5, 1
6446, 11.5, 9.5, 1
6447, 11.75, 9.5, 1
6448, 12, 9.5, 1
6449, 12.25, 9.5, 1
6450, 12.5, 9.5, 1
6451, 12.75, 9.5, 1
6452, 13, 9.5, 1
6453, 13.25, 9.5, 1
6454, 13.5, 9.5, 1
6455, 13.75, 9.5, 1
6456, 14, 9.5, 1
6457, 14.25, 9.5, 1
6458, 14.5, 9.5, 1
6459, 14.75, 9.5, 1
6460, 15, 9.5, 1
6461, 15.25, 9.5, 1
6462, 15.5, 9.5, 1
6463, 15.75, 9.5, 1
6464, 16, 9.5, 1
6465, 16.25, 9.5, 1
6466, 16.5, 9.5, 1
6467, 16.75, 9.5, 1
6468, 17, 9.5, 1
6469, 17.25, 9.5, 1
6470, 17.5, 9.5, 1
6471, 17.75, 9.5, 1
6472, 18, 9.5, 1
6473, 18.25, 9.5, 1
6474, 18.5, 9.5, 1
6475, 18.75, 9.5, 1
6476, 19, 9.5, 1
6477, 19.25, 9.5, 1
6478, 19.5, 9.5, 1
6479, 19.75, 9.5, 1
6480, 20, 9.5, 1
6481, 0, 9.75, 1
6482, 0.25, 9.75, 1
6483, 0.5, 9.75, 1
6484, 0.75, 9.75, 1
6485, 1, 9.75, 1
6486, 1.25, 9.75, 1
6487, 1.5, 9.75, 1
6488, 1.75, 9.75, 1
6489, 2, 9.75, 1
6490, 2.25, 9.75, 1
6491, 2.5, 9.75, 1
6492, 2.75, 9.75, 1
6493, 3, 9.75, 1
6494, 3.25, 9.75, 1
6495, 3.5, 9.75, 1
6496, 3.75, 9.75, 1
6497, 4, 9.75, 1
6498, 4.25, 9.75, 1
6499, 4.5, 9.75, 1
6500, 4.75, 9.75, 1
6501, 5, 9.75, 1
6502, 5.25, 9.75, 1
6503, 5.5, 9.75, 1
6504, 5.75, 9.75, 1
6505, 6, 9.75, 1
6506, 6.25, 9.75, 1
6507, 6.5, 9.75, 1
6508, 6.75, 9.75, 1
6509, 7, 9.75, 1
6510, 7.25, 9.75, 1
6511, 7.5, 9.75, 1
6512, 7.75, 9.75, 1
6513, 8, 9.75, 1
6514, 8.25, 9.75, 1
6515, 8.5, 9.75, 1
6516, 8.75, 9.75, 1
6517, 9, 9.75, 1
6518, 9.25, 9.75, 1
6519, 9.5, 9.75, 1
6520, 9.75, 9.75, 1
6521, 10, 9.75, 1
6522, 10.25, 9.75, 1
6523, 10.5, 9.75, 1
6524, 10.75, 9.75, 1
6525, 11, 9.75, 1
6526, 11.25, 9.75, 1
6527, 11.5, 9.75, 1
6528, 11.75, 9.75, 1
6529, 12, 9.75, 1
6530, 12.25, 9.75, 1
6531, 12.5, 9.75, 1
6532, 12.75, 9.75, 1
6533, 13, 9.75, 1
6534, 13.25, 9.75, 1
6535, 13.5, 9.75, 1
6536, 13.75, 9.75, 1
6537, 14, 9.75, 1
6538, 14.25, 9.75, 1
6539, 14.5, 9.75, 1
6540, 14.75, 9.75, 1
6541, 15, 9.75, 1
6542, 15.25, 9.75, 1
6543, 15.5, 9.75, 1
6544, 15.75, 9.75, 1
6545, 16, 9.75, 1
6546, 16.25, 9.75, 1
6547, 16.5, 9.75, 1
6548, 16.75, 9.75, 1
6549, 17, 9.75, 1
6550, 17.25, 9.75, 1
6551, 17.5, 9.75, 1
6552, 17.75, 9.75, 1
6553, 18, 9.75, 1
6554, 18.25, 9.75, 1
6555, 18.5, 9.75, 1
6556, 18.75, 9.75, 1
6557, 19, 9.75, 1
6558, 19.25, 9.75, 1
6559, 19.5, 9.75, 1
6560, 19.75, 9.75, 1
6561, 20, 9.75, 1
6562, 0, 10, 1
6563, 0.25, 10, 1
6564, 0.5, 10, 1
6565, 0.75, 10, 1
6566, 1, 10, 1
6567, 1.25, 10, 1
6568, 1.5, 10, 1
6569, 1.75, 10, 1
6570, 2, 10, 1
6571, 2.25, 10, 1
6572, 2.5, 10, 1
6573, 2.75, 10, 1
6574, 3, 10, 1
6575, 3.25, 10, 1
6576, 3.5, 10, 1
6577, 3.75, 10, 1
6578, 4, 10, 1
6579, 4.25, 10, 1
6580, 4.5, 10, 1
6581, 4.75, 10, 1
6582, 5, 10, 1
6583, 5.25, 10, 1
6584, 5.5, 10, 1
6585, 5.75, 10, 1
6586, 6, 10, 1
6587, 6.25, 10, 1
6588, 6.5, 10, 1
6589, 6.75, 10, 1
6590, 7, 10, 1
6591, 7.25, 10, 1
6592, 7.5, 10, 1
6593, 7.75, 10, 1
6594, 8, 10, 1
6595, 8.25, 10, 1
6596, 8.5, 10, 1
6597, 8.75, 10, 1
6598, 9, 10, 1
6599, 9.25, 10, 1
6600, 9.5, 10, 1
6601, 9.75, 10, 1
6602, 10, 10, 1
6603, 10.25, 10, 1
6604, 10.5, 10, 1
6605, 10.75, 10, 1
6606, 11, 10, 1
6607, 11.25, 10, 1
6608, 11.5, 10, 1
6609, 11.75, 10, 1
6610, 12, 10, 1
6611, 12.25, 10, 1
6612, 12.5, 10, 1
6613, 12.75, 10, 1
6614, 13, 10, 1
6615, 13.25, 10, 1
6616, 13.5, 10, 1
6617, 13.75, 10, 1
6618, 14, 10, 1
6619, 14.25, 10, 1
6620, 14.5, 10, 1
6621, 14.75, 10, 1
6622, 15, 10, 1
6623, 15.25, 10, 1
6624, 15.5, 10, 1
6625, 15.75, 10, 1
6626, 16, 10, 1
6627, 16.25, 10, 1
6628, 16.5, 10, 1
6629, 16.75, 10, 1
6630, 17, 10, 1
6631, 17.25, 10, 1
6632, 17.5, 10, 1
6633, 17.75, 10, 1
6634, 18, 10, 1
6635, 18.25, 10, 1
6636, 18.5, 10, 1
6637, 18.75, 10, 1
6638, 19, 10, 1
6639, 19.25, 10, 1
6640, 19.5, 10, 1
6641, 19.75, 10, 1
6642, 20, 10, 1
*ELEMENT, TYPE=C3D8, ELSET=PLATE_ALL
1, 1, 2, 83, 82, 3322, 3323, 3404, 3403
2, 2, 3, 84, 83, 3323, 3324, 3405, 3404
3, 3, 4, 85, 84, 3324, 3325, 3406, 3405
4, 4, 5, 86, 85, 3325, 3326, 3407, 3406
5, 5, 6, 87, 86, 3326, 3327, 3408, 3407
6, 6, 7, 88, 87, 3327, 3328, 3409, 3408
7, 7, 8, 89, 88, 3328, 3329, 3410, 3409
8, 8, 9, 90, 89, 3329, 3330, 3411, 3410
9, 9, 10, 91, 90, 3330, 3331, 3412, 3411
10, 10, 11, 92, 91, 3331, 3332, 3413, 3412
11, 11, 12, 93, 92, 3332, 3333, 3414, 3413
12, 12, 13, 94, 93, 3333, 3334, 3415, 3414
13, 13, 14, 95, 94, 3334, 3335, 3416, 3415
14, 14, 15, 96, 95, 3335, 3336, 3417, 3416
15, 15, 16, 97, 96, 3336, 3337, 3418, 3417
16, 16, 17, 98, 97, 3337, 3338, 3419, 3418
17, 17, 18, 99, 98, 3338, 3339, 3420, 3419
18, 18, 19, 100, 99, 3339, 3340, 3421, 3420
19, 19, 20, 101, 100, 3340, 3341, 3422, 3421
20, 20, 21, 102, 101, 3341, 3342, 3423, 3422
21, 21, 22, 103, 102, 3342, 3343, 3424, 3423
22, 22, 23, 104, 103, 3343, 3344, 3425, 3424
23, 23, 24, 105, 104, 3344, 3345, 3426, 3425
24, 24, 25, 106, 105, 3345, 3346, 3427, 3426
25, 25, 26, 107, 106, 3346, 3347, 3428, 3427
26, 26, 27, 108, 107, 3347, 3348, 3429, 3428
27, 27, 28, 109, 108, 3348, 3349, 3430, 3429
28, 28, 29, 110, 109, 3349, 3350, 3431, 3430
29, 29, 30, 111, 110, 3350, 3351, 3432, 3431
30, 30, 31, 112, 111, 3351, 3352, 3433, 3432
31, 31, 32, 113, 112, 3352, 3353, 3434, 3433
32, 32, 33, 114, 113, 3353, 3354, 3435, 3434
33, 33, 34, 115, 114, 3354, 3355, 3436, 3435
34, 34, 35, 116, 115, 3355, 3356, 3437, 3436
35, 35, 36, 117, 116, 3356, 3357, 3438, 3437
36, 36, 37, 118, 117, 3357, 3358, 3439, 3438
37, 37, 38, 119, 118, 3358, 3359, 3440, 3439
38, 38, 39, 120, 119, 3359, 3360, 3441, 3440
39, 39, 40, 121, 120, 3360, 3361, 3442, 3441
40, 40, 41, 122, 121, 3361, 3362, 3443, 3442
41, 41, 42, 123, 122, 3362, 3363, 3444, 3443
42, 42, 43, 124, 123, 3363, 3364, 3445, 3444
43, 43, 44, 125, 124, 3364, 3365, 3446, 3445
44, 44, 45, 126, 125, 3365, 3366, 3447, 3446
45, 45, 46, 127, 126, 3366, 3367, 3448, 3447
46, 46, 47, 128, 127, 3367, 3368, 3449, 3448
47, 47, 48, 129, 128, 3368, 3369, 3450, 3449
48, 48, 49, 130, 129, 3369, 3370, 3451, 3450
49, 49, 50, 131, 130, 3370, 3371, 3452, 3451
50, 50, 51, 132, 131, 3371, 3372, 3453, 3452
51, 51, 52, 133, 132, 3372, 3373, 3454, 3453
52, 52, 53, 134, 133, 3373, 3374, 3455, 3454
53, 53, 54, 135, 134, 3374, 3375, 3456, 3455
54, 54, 55, 136, 135, 3375, 3376, 3457, 3456
55, 55, 56, 137, 136, 3376, 3377, 3458, 3457
56, 56, 57, 138, 137, 3377, 3378, 3459, 3458
57, 57, 58, 139, 138, 3378, 3379, 3460, 3459
58, 58, 59, 140, 139, 3379, 3380, 3461, 3460
59, 59, 60, 141, 140, 3380, 3381, 3462, 3461
60, 60, 61, 142, 141, 3381, 3382, 3463, 3462
61, 61, 62, 143, 142, 3382, 3383, 3464, 3463
62, 62, 63, 144, 143, 3383, 3384, 3465, 3464
63, 63, 64, 145, 144, 3384, 3385, 3466, 3465
64, 64, 65, 146, 145, 3385, 3386, 3467, 3466
65, 65, 66, 147, 146, 3386, 3387, 3468, 3467
66, 66, 67, 148, 147, 3387, 3388, 3469, 3468
67, 67, 68, 149, 148, 3388, 3389, 3470, 3469
68, 68, 69, 150, 149, 3389, 3390, 3471, 3470
69, 69, 70, 151, 150, 3390, 3391, 3472, 3471
70, 70, 71, 152, 151, 3391, 3392, 3473, 3472
71, 71, 72, 153, 152, 3392, 3393, 3474, 3473
72, 72, 73, 154, 153, 3393, 3394, 3475, 3474
73, 73, 74, 155, 154, 3394, 3395, 3476, 3475
74, 74, 75, 156, 155, 3395, 3396, 3477, 3476
75, 75, 76, 157, 156, 3396, 3397, 3478, 3477
76, 76, 77, 158, 157, 3397, 3398, 3479, 3478
77, 77, 78, 159, 158, 3398, 3399, 3480, 3479
78, 78, 79, 160, 159, 3399, 3400, 3481, 3480
79, 79, 80, 161, 160, 3400, 3401, 3482, 3481
80, 80, 81, 162, 161, 3401, 3402, 3483, 3482
81, 82, 83, 164, 163, 3403, 3404, 3485, 3484
82, 83, 84, 165, 164, 3404, 3405, 3486, 3485
83, 84, 85, 166, 165, 3405, 3406, 3487, 3486
84, 85, 86, 167, 166, 3406, 3407, 3488, 3487
85, 86, 87, 168, 167, 3407, 3408, 3489, 3488
86, 87, 88, 169, 168, 3408, 3409, 3490, 3489
87, 88, 89, 170, 169, 3409, 3410, 3491, 3490
88, 89, 90, 171, 170, 3410, 3411, 3492, 3491
89, 90, 91, 172, 171, 3411, 3412, 3493, 3492
90, 91, 92, 173, 172, 3412, 3413, 3494, 3493
91, 92, 93, 174, 173, 3413, 3414, 3495, 3494
92, 93, 94, 175, 174, 3414, 3415, 3496, 3495
93, 94, 95, 176, 175, 3415, 3416, 3497, 3496
94, 95, 96, 177, 176, 3416, 3417, 3498, 3497
95, 96, 97, 178, 177, 3417, 3418, 3499, 3498
96, 97, 98, 179, 178, 3418, 3419, 3500, 3499
97, 98, 99, 180, 179, 3419, 3420, 3501, 3500
98, 99, 100, 181, 180, 3420, 3421, 3502, 3501
99, 100, 101, 182, 181, 3421, 3422, 3503, 3502
100, 101, 102, 183, 182, 3422, 3423, 3504, 3503
101, 102, 103, 184, 183, 3423, 3424, 3505, 3504
102, 103, 104, 185, 184, 3424, 3425, 3506, 3505
103, 104, 105, 186, 185, 3425, 3426, 3507, 3506
104, 105, 106, 187, 186, 3426, 3427, 3508, 3507
105, 106, 107, 188, 187, 3427, 3428, 3509, 3508
106, 107, 108, 189, 188, 3428, 3429, 3510, 3509
107, 108, 109, 190, 189, 3429, 3430, 3511, 3510
108, 109, 110, 191, 190, 3430, 3431, 3512, 3511
109, 110, 111, 192, 191, 3431, 3432, 3513, 3512
110, 111, 112, 193, 192, 3432, 3433, 3514, 3513
111, 112, 113, 194, 193, 3433, 3434, 3515, 3514
112, 113, 114, 195, 194, 3434, 3435, 3516, 3515
113, 114, 115, 196, 195, 3435, 3436, 3517, 3516
114, 115, 116, 197, 196, 3436, 3437, 3518, 3517
115, 116, 117, 198, 197, 3437, 3438, 3519, 3518
116, 117, 118, 199, 198, 3438, 3439, 3520, 3519
117, 118, 119, 200, 199, 3439, 3440, 3521, 3520
118, 119, 120, 201, 200, 3440, 3441, 3522, 3521
119, 120, 121, 202, 201, 3441, 3442, 3523, 3522
120, 121, 122, 203, 202, 3442, 3443, 3524, 3523
121, 122, 123, 204, 203, 3443, 3444, 3525, 3524
122, 123, 124, 205, 204, 3444, 3445, 3526, 3525
123, 124, 125, 206, 205, 3445, 3446, 3527, 3526
124, 125, 126, 207, 206, 3446, 3447, 3528, 3527
125, 126, 127, 208, 207, 3447, 3448, 3529, 3528
126, 127, 128, 209, 208, 3448, 3449, 3530, 3529
127, 128, 129, 210, 209, 3449, 3450, 3531, 3530
128, 129, 130, 211, 210, 3450, 3451, 3532, 3531
129, 130, 131, 212, 211, 3451, 3452, 3533, 3532
130, 131, 132, 213, 212, 3452, 3453, 3534, 3533
131, 132, 133, 214, 213, 3453, 3454, 3535, 3534
132, 133, 134, 215, 214, 3454, 3455, 3536, 3535
133, 134, 135, 216, 215, 3455, 3456, 3537, 3536
134, 135, 136, 217, 216, 3456, 3457, 3538, 3537
135, 136, 137, 218, 217, 3457, 3458, 3539, 3538
136, 137, 138, 219, 218, 3458, 3459, 3540, 3539
137, 138, 139, 220, 219, 3459, 3460, 3541, 3540
138, 139, 140, 221, 220, 3460, 3461, 3542, 3541
139, 140, 141, 222, 221, 3461, 3462, 3543, 3542
140, 141, 142, 223, 222, 3462, 3463, 3544, 3543
141, 142, 143, 224, 223, 3463, 3464, 3545, 3544
142, 143, 144, 225, 224, 3464, 3465, 3546, 3545
143, 144, 145, 226, 225, 3465, 3466, 3547, 3546
144, 145, 146, 227, 226, 3466, 3467, 3548, 3547
145, 146, 147, 228, 227, 3467, 3468, 3549, 3548
146, 147, 148, 229, 228, 3468, 3469, 3550, 3549
147, 148, 149, 230, 229, 3469, 3470, 3551, 3550
148, 149, 150, 231, 230, 3470, 3471, 3552, 3551
149, 150, 151, 232, 231, 3471, 3472, 3553, 3552
150, 151, 152, 233, 232, 3472, 3473, 3554, 3553
151, 152, 153, 234, 233, 3473, 3474, 3555, 3554
152, 153, 154, 235, 234, 3474, 3475, 3556, 3555
153, 154, 155, 236, 235, 3475, 3476, 3557, 3556
154, 155, 156, 237, 236, 3476, 3477, 3558, 3557
155, 156, 157, 238, 237, 3477, 3478, 3559, 3558
156, 157, 158, 239, 238, 3478, 3479, 3560, 3559
157, 158, 159, 240, 239, 3479, 3480, 3561, 3560
158, 159, 160, 241, 240, 3480, 3481, 3562, 3561
159, 160, 161, 242, 241, 3481, 3482, 3563, 3562
160, 161, 162, 243, 242, 3482, 3483, 3564, 3563
161, 163, 164, 245, 244, 3484, 3485, 3566, 3565
162, 164, 165, 246, 245, 3485, 3486, 3567, 3566
163, 165, 166, 247, 246, 3486, 3487, 3568, 3567
164, 166, 167, 248, 247, 3487, 3488, 3569, 3568
165, 167, 168, 249, 248, 3488, 3489, 3570, 3569
166, 168, 169, 250, 249, 3489, 3490, 3571, 3570
167, 169, 170, 251, 250, 3490, 3491, 3572, 3571
168, 170, 171, 252, 251, 3491, 3492, 3573, 3572
169, 171, 172, 253, 252, 3492, 3493, 3574, 3573
170, 172, 173, 254, 253, 3493, 3494, 3575, 3574
171, 173, 174, 255, 254, 3494, 3495, 3576, 3575
172, 174, 175, 256, 255, 3495, 3496, 3577, 3576
173, 175, 176, 257, 256, 3496, 3497, 3578, 3577
174, 176, 177, 258, 257, 3497, 3498, 3579, 3578
175, 177, 178, 259, 258, 3498, 3499, 3580, 3579
176, 178, 179, 260, 259, 3499, 3500, 3581, 3580
177, 179, 180, 261, 260, 3500, 3501, 3582, 3581
178, 180, 181, 262, 261, 3501, 3502, 3583, 3582
179, 181, 182, 263, 262, 3502, 3503, 3584, 3583
180, 182, 183, 264, 263, 3503, 3504, 3585, 3584
181, 183, 184, 265, 264, 3504, 3505, 3586, 3585
182, 184, 185, 266, 265, 3505, 3506, 3587, 3586
183, 185, 186, 267, 266, 3506, 3507, 3588, 3587
184, 186, 187, 268, 267, 3507, 3508, 3589, 3588
185, 187, 188, 269, 268, 3508, 3509, 3590, 3589
186, 188, 189, 270, 269, 3509, 3510, 3591, 3590
187, 189, 190, 271, 270, 3510, 3511, 3592, 3591
188, 190, 191, 272, 271, 3511, 3512, 3593, 3592
189, 191, 192, 273, 272, 3512, 3513, 3594, 3593
190, 192, 193, 274, 273, 3513, 3514, 3595, 3594
191, 193, 194, 275, 274, 3514, 3515, 3596, 3595
192, 194, 195, 276, 275, 3515, 3516, 3597, 3596
193, 195, 196, 277, 276, 3516, 3517, 3598, 3597
194, 196, 197, 278, 277, 3517, 3518, 3599, 3598
195, 197, 198, 279, 278, 3518, 3519, 3600, 3599
196, 198, 199, 280, 279, 3519, 3520, 3601, 3600
197, 199, 200, 281, 280, 3520, 3521, 3602, 3601
198, 200, 201, 282, 281, 3521, 3522, 3603, 3602
199, 201, 202, 283, 282, 3522, 3523, 3604, 3603
200, 202, 203, 284, 283, 3523, 3524, 3605, 3604
201, 203, 204, 285, 284, 3524, 3525, 3606, 3605
202, 204, 205, 286, 285, 3525, 3526, 3607, 3606
203, 205, 206, 287, 286, 3526, 3527, 3608, 3607
204, 206, 207, 288, 287, 3527, 3528, 3609, 3608
205, 207, 208, 289, 288, 3528, 3529, 3610, 3609
206, 208, 209, 290, 289, 3529, 3530, 3611, 3610
207, 209, 210, 291, 290, 3530, 3531, 3612, 3611
208, 210, 211, 292, 291, 3531, 3532, 3613, 3612
209, 211, 212, 293, 292, 3532, 3533, 3614, 3613
210, 212, 213, 294, 293, 3533, 3534, 3615, 3614
211, 213, 214, 295, 294, 3534, 3535, 3616, 3615
212, 214, 215, 296, 295, 3535, 3536, 3617, 3616
213, 215, 216, 297, 296, 3536, 3537, 3618, 3617
214, 216, 217, 298, 297, 3537, 3538, 3619, 3618
215, 217, 218, 299, 298, 3538, 3539, 3620, 3619
216, 218, 219, 300, 299, 3539, 3540, 3621, 3620
217, 219, 220, 301, 300, 3540, 3541, 3622, 3621
218, 220, 221, 302, 301, 3541, 3542, 3623, 3622
219, 221, 222, 303, 302, 3542, 3543, 3624, 3623
220, 222, 223, 304, 303, 3543, 3544, 3625, 3624
221, 223, 224, 305, 304, 3544, 3545, 3626, 3625
222, 224, 225, 306, 305, 3545, 3546, 3627, 3626
223, 225, 226, 307, 306, 3546, 3547, 3628, 3627
224, 226, 227, 308, 307, 3547, 3548, 3629, 3628
225, 227, 228, 309, 308, 3548, 3549, 3630, 3629
226, 228, 229, 310, 309, 3549, 3550, 3631, 3630
227, 229, 230, 311, 310, 3550, 3551, 3632, 3631
228, 230, 231, 312, 311, 3551, 3552, 3633, 3632
229, 231, 232, 313, 312, 3552, 3553, 3634, 3633
230, 232, 233, 314, 313, 3553, 3554, 3635, 3634
231, 233, 234, 315, 314, 3554, 3555, 3636, 3635
232, 234, 235, 316, 315, 3555, 3556, 3637, 3636
233, 235, 236, 317, 316, 3556, 3557, 3638, 3637
234, 236, 237, 318, 317, 3557, 3558, 3639, 3638
235, 237, 238, 319, 318, 3558, 3559, 3640, 3639
236, 238, 239, 320, 319, 3559, 3560, 3641, 3640
237, 239, 240, 321, 320, 3560, 3561, 3642, 3641
238, 240, 241, 322, 321, 3561, 3562, 3643, 3642
239, 241, 242, 323, 322, 3562, 3563, 3644, 3643
240, 242, 243, 324, 323, 3563, 3564, 3645, 3644
241, 244, 245, 326, 325, 3565, 3566, 3647, 3646
242, 245, 246, 327, 326, 3566, 3567, 3648, 3647
243, 246, 247, 328, 327, 3567, 3568, 3649, 3648
244, 247, 248, 329, 328, 3568, 3569, 3650, 3649
245, 248, 249, 330, 329, 3569, 3570, 3651, 3650
246, 249, 250, 331, 330, 3570, 3571, 3652, 3651
247, 250, 251, 332, 331, 3571, 3572, 3653, 3652
248, 251, 252, 333, 332, 3572, 3573, 3654, 3653
249, 252, 253, 334, 333, 3573, 3574, 3655, 3654
250, 253, 254, 335, 334, 3574, 3575, 3656, 3655
251, 254, 255, 336, 335, 3575, 3576, 3657, 3656
252, 255, 256, 337, 336, 3576, 3577, 3658, 3657
253, 256, 257, 338, 337, 3577, 3578, 3659, 3658
254, 257, 258, 339, 338, 3578, 3579, 3660, 3659
255, 258, 259, 340, 339, 3579, 3580, 3661, 3660
256, 259, 260, 341, 340, 3580, 3581, 3662, 3661
257, 260, 261, 342, 341, 3581, 3582, 3663, 3662
258, 261, 262, 343, 342, 3582, 3583, 3664, 3663
259, 262, 263, 344, 343, 3583, 3584, 3665, 3664
260, 263, 264, 345, 344, 3584, 3585, 3666, 3665
261, 264, 265, 346, 345, 3585, 3586, 3667, 3666
262, 265, 266, 347, 346, 3586, 3587, 3668, 3667
263, 266, 267, 348, 347, 3587, 3588, 3669, 3668
264, 267, 268, 349, 348, 3588, 3589, 3670, 3669
265, 268, 269, 350, 349, 3589, 3590, 3671, 3670
266, 269, 270, 351, 350, 3590, 3591, 3672, 3671
267, 270, 271, 352, 351, 3591, 3592, 3673, 3672
268, 271, 272, 353, 352, 3592, 3593, 3674, 3673
269, 272, 273, 354, 353, 3593, 3594, 3675, 3674
270, 273, 274, 355, 354, 3594, 3595, 3676, 3675
271, 274, 275, 356, 355, 3595, 3596, 3677, 3676
272, 275, 276, 357, 356, 3596, 3597, 3678, 3677
273, 276, 277, 358, 357, 3597, 3598, 3679, 3678
274, 277, 278, 359, 358, 3598, 3599, 3680, 3679
275, 278, 279, 360, 359, 3599, 3600, 3681, 3680
276, 279, 280, 361, 360, 3600, 3601, 3682, 3681
277, 280, 281, 362, 361, 3601, 3602, 3683, 3682
278, 281, 282, 363, 362, 3602, 3603, 3684, 3683
279, 282, 283, 364, 363, 3603, 3604, 3685, 3684
280, 283, 284, 365, 364, 3604, 3605, 3686, 3685
281, 284, 285, 366, 365, 3605, 3606, 3687, 3686
282, 285, 286, 367, 366, 3606, 3607, 3688, 3687
283, 286, 287, 368, 367, 3607, 3608, 3689, 3688
284, 287, 288, 369, 368, 3608, 3609, 3690, 3689
285, 288, 289, 370, 369, 3609, 3610, 3691, 3690
286, 289, 290, 371, 370, 3610, 3611, 3692, 3691
287, 290, 291, 372, 371, 3611, 3612, 3693, 3692
288, 291, 292, 373, 372, 3612, 3613, 3694, 3693
289, 292, 293, 374, 373, 3613, 3614, 3695, 3694
290, 293, 294, 375, 374, 3614, 3615, 3696, 3695
291, 294, 295, 376, 375, 3615, 3616, 3697, 3696
292, 295, 296, 377, 376, 3616, 3617, 3698, 3697
293, 296, 297, 378, 377, 3617, 3618, 3699, 3698
294, 297, 298, 379, 378, 3618, 3619, 3700, 3699
295, 298, 299, 380, 379, 3619, 3620, 3701, 3700
296, 299, 300, 381, 380, 3620, 3621, 3702, 3701
297, 300, 301, 382, 381, 3621, 3622, 3703, 3702
298, 301, 302, 383, 382, 3622, 3623, 3704, 3703
299, 302, 303, 384, 383, 3623, 3624, 3705, 3704
300, 303, 304, 385, 384, 3624, 3625, 3706, 3705
301, 304, 305, 386, 385, 3625, 3626, 3707, 3706
302, 305, 306, 387, 386, 3626, 3627, 3708, 3707
303, 306, 307, 388, 387, 3627, 3628, 3709, 3708
304, 307, 308, 389, 388, 3628, 3629, 3710, 3709
305, 308, 309, 390, 389, 3629, 3630, 3711, 3710
306, 309, 310, 391, 390, 3630, 3631, 3712, 3711
307, 310, 311, 392, 391, 3631, 3632, 3713, 3712
308, 311, 312, 393, 392, 3632, 3633, 3714, 3713
309, 312, 313, 394, 393, 3633, 3634, 3715, 3714
310, 313, 314, 395, 394, 3634, 3635, 3716, 3715
311, 314, 315, 396, 395, 3635, 3636, 3717, 3716
312, 315, 316, 397, 396, 3636, 3637, 3718, 3717
313, 316, 317, 398, 397, 3637, 3638, 3719, 3718
314, 317, 318, 399, 398, 3638, 3639, 3720, 3719
315, 318, 319, 400, 399, 3639, 3640, 3721, 3720
316, 319, 320, 401, 400, 3640, 3641, 3722, 3721
317, 320, 321, 402, 401, 3641, 3642, 3723, 3722
318, 321, 322, 403, 402, 3642, 3643, 3724, 3723
319, 322, 323, 404, 403, 3643, 3644, 3725, 3724
320, 323, 324, 405, 404, 3644, 3645, 3726, 3725
321, 325, 326, 407, 406, 3646, 3647, 3728, 3727
322, 326, 327, 408, 407, 3647, 3648, 3729, 3728
323, 327, 328, 409, 408, 3648, 3649, 3730, 3729
324, 328, 329, 410, 409, 3649, 3650, 3731, 3730
325, 329, 330, 411, 410, 3650, 3651, 3732, 3731
326, 330, 331, 412, 411, 3651, 3652, 3733, 3732
327, 331, 332, 413, 412, 3652, 3653, 3734, 3733
328, 332, 333, 414, 413, 3653, 3654, 3735, 3734
329, 333, 334, 415, 414, 3654, 3655, 3736, 3735
330, 334, 335, 416, 415, 3655, 3656, 3737, 3736
331, 335, 336, 417, 416, 3656, 3657, 3738, 3737
332, 336, 337, 418, 417, 3657, 3658, 3739, 3738
333, 337, 338, 419, 418, 3658, 3659, 3740, 3739
334, 338, 339, 420, 419, 3659, 3660, 3741, 3740
335, 339, 340, 421, 420, 3660, 3661, 3742, 3741
336, 340, 341, 422, 421, 3661, 3662, 3743, 3742
337, 341, 342, 423, 422, 3662, 3663, 3744, 3743
338, 342, 343, 424, 423, 3663, 3664, 3745, 3744
339, 343, 344, 425, 424, 3664, 3665, 3746, 3745
340, 344, 345, 426, 425, 3665, 3666, 3747, 3746
341, 345, 346, 427, 426, 3666, 3667, 3748, 3747
342, 346, 347, 428, 427, 3667, 3668, 3749, 3748
343, 347, 348, 429, 428, 3668, 3669, 3750, 3749
344, 348, 349, 430, 429, 3669, 3670, 3751, 3750
345, 349, 350, 431, 430, 3670, 3671, 3752, 3751
346, 350, 351, 432, 431, 3671, 3672, 3753, 3752
347, 351, 352, 433, 432, 3672, 3673, 3754, 3753
348, 352, 353, 434, 433, 3673, 3674, 3755, 3754
349, 353, 354, 435, 434, 3674, 3675, 3756, 3755
350, 354, 355, 436, 435, 3675, 3676, 3757, 3756
351, 355, 356, 437, 436, 3676, 3677, 3758, 3757
352, 356, 357, 438, 437, 3677, 3678, 3759, 3758
353, 357, 358, 439, 438, 3678, 3679, 3760, 3759
354, 358, 359, 440, 439, 3679, 3680, 3761, 3760
355, 359, 360, 441, 440, 3680, 3681, 3762, 3761
356, 360, 361, 442, 441, 3681, 3682, 3763, 3762
357, 361, 362, 443, 442, 3682, 3683, 3764, 3763
358, 362, 363, 444, 443, 3683, 3684, 3765, 3764
359, 363, 364, 445, 444, 3684, 3685, 3766, 3765
360, 364, 365, 446, 445, 3685, 3686, 3767, 3766
361, 365, 366, 447, 446, 3686, 3687, 3768, 3767
362, 366, 367, 448, 447, 3687, 3688, 3769, 3768
363, 367, 368, 449, 448, 3688, 3689, 3770, 3769
364, 368, 369, 450, 449, 3689, 3690, 3771, 3770
365, 369, 370, 451, 450, 3690, 3691, 3772, 3771
366, 370, 371, 452, 451, 3691, 3692, 3773, 3772
367, 371, 372, 453, 452, 3692, 3693, 3774, 3773
368, 372, 373, 454, 453, 3693, 3694, 3775, 3774
369, 373, 374, 455, 454, 3694, 3695, 3776, 3775
370, 374, 375, 456, 455, 3695, 3696, 3777, 3776
371, 375, 376, 457, 456, 3696, 3697, 3778, 3777
372, 376, 377, 458, 457, 3697, 3698, 3779, 3778
373, 377, 378, 459, 458, 3698, 3699, 3780, 3779
374, 378, 379, 460, 459, 3699, 3700, 3781, 3780
375, 379, 380, 461, 460, 3700, 3701, 3782, 3781
376, 380, 381, 462, 461, 3701, 3702, 3783, 3782
377, 381, 382, 463, 462, 3702, 3703, 3784, 3783
378, 382, 383, 464, 463, 3703, 3704, 3785, 3784
379, 383, 384, 465, 464, 3704, 3705, 3786, 3785
380, 384, 385, 466, 465, 3705, 3706, 3787, 3786
381, 385, 386, 467, 466, 3706, 3707, 3788, 3787
382, 386, 387, 468, 467, 3707, 3708, 3789, 3788
383, 387, 388, 469, 468, 3708, 3709, 3790, 3789
384, 388, 389, 470, 469, 3709, 3710, 3791, 3790
385, 389, 390, 471, 470, 3710, 3711, 3792, 3791
386, 390, 391, 472, 471, 3711, 3712, 3793, 3792
387, 391, 392, 473, 472, 3712, 3713, 3794, 3793
388, 392, 393, 474, 473, 3713, 3714, 3795, 3794
389, 393, 394, 475, 474, 3714, 3715, 3796, 3795
390, 394, 395, 476, 475, 3715, 3716, 3797, 3796
391, 395, 396, 477, 476, 3716, 3717, 3798, 3797
392, 396, 397, 478, 477, 3717, 3718, 3799, 3798
393, 397, 398, 479, 478, 3718, 3719, 3800, 3799
394, 398, 399, 480, 479, 3719, 3720, 3801, 3800
395, 399, 400, 481, 480, 3720, 3721, 3802, 3801
396, 400, 401, 482, 481, 3721, 3722, 3803, 3802
397, 401, 402, 483, 482, 3722, 3723, 3804, 3803
398, 402, 403, 484, 483, 3723, 3724, 3805, 3804
399, 403, 404, 485, 484, 3724, 3725, 3806, 3805
400, 404, 405, 486, 485, 3725, 3726, 3807, 3806
401, 406, 407, 488, 487, 3727, 3728, 3809, 3808
402, 407, 408, 489, 488, 3728, 3729, 3810, 3809
403, 408, 409, 490, 489, 3729, 3730, 3811, 3810
404, 409, 410, 491, 490, 3730, 3731, 3812, 3811
405, 410, 411, 492, 491, 3731, 3732, 3813, 3812
406, 411, 412, 493, 492, 3732, 3733, 3814, 3813
407, 412, 413, 494, 493, 3733, 3734, 3815, 3814
408, 413, 414, 495, 494, 3734, 3735, 3816, 3815
409, 414, 415, 496, 495, 3735, 3736, 3817, 3816
410, 415, 416, 497, 496, 3736, 3737, 3818, 3817
411, 416, 417, 498, 497, 3737, 3738, 3819, 3818
412, 417, 418, 499, 498, 3738, 3739, 3820, 3819
413, 418, 419, 500, 499, 3739, 3740, 3821, 3820
414, 419, 420, 501, 500, 3740, 3741, 3822, 3821
415, 420, 421, 502, 501, 3741, 3742, 3823, 3822
416, 421, 422, 503, 502, 3742, 3743, 3824, 3823
417, 422, 423, 504, 503, 3743, 3744, 3825, 3824
418, 423, 424, 505, 504, 3744, 3745, 3826, 3825
419, 424, 425, 506, 505, 3745, 3746, 3827, 3826
420, 425, 426, 507, 506, 3746, 3747, 3828, 3827
421, 426, 427, 508, 507, 3747, 3748, 3829, 3828
422, 427, 428, 509, 508, 3748, 3749, 3830, 3829
423, 428, 429, 510, 509, 3749, 3750, 3831, 3830
424, 429, 430, 511, 510, 3750, 3751, 3832, 3831
425, 430, 431, 512, 511, 3751, 3752, 3833, 3832
426, 431, 432, 513, 512, 3752, 3753, 3834, 3833
427, 432, 433, 514, 513, 3753, 3754, 3835, 3834
428, 433, 434, 515, 514, 3754, 3755, 3836, 3835
429, 434, 435, 516, 515, 3755, 3756, 3837, 3836
430, 435, 436, 517, 516, 3756, 3757, 3838, 3837
431, 436, 437, 518, 517, 3757, 3758, 3839, 3838
432, 437, 438, 519, 518, 3758, 3759, 3840, 3839
433, 438, 439, 520, 519, 3759, 3760, 3841, 3840
434, 439, 440, 521, 520, 3760, 3761, 3842, 3841
435, 440, 441, 522, 521, 3761, 3762, 3843, 3842
436, 441, 442, 523, 522, 3762, 3763, 3844, 3843
437, 442, 443, 524, 523, 3763, 3764, 3845, 3844
438, 443, 444, 525, 524, 3764, 3765, 3846, 3845
439, 444, 445, 526, 525, 3765, 3766, 3847, 3846
440, 445, 446, 527, 526, 3766, 3767, 3848, 3847
441, 446, 447, 528, 527, 3767, 3768, 3849, 3848
442, 447, 448, 529, 528, 3768, 3769, 3850, 3849
443, 448, 449, 530, 529, 3769, 3770, 3851, 3850
444, 449, 450, 531, 530, 3770, 3771, 3852, 3851
445, 450, 451, 532, 531, 3771, 3772, 3853, 3852
446, 451, 452, 533, 532, 3772, 3773, 3854, 3853
447, 452, 453, 534, 533, 3773, 3774, 3855, 3854
448, 453, 454, 535, 534, 3774, 3775, 3856, 3855
449, 454, 455, 536, 535, 3775, 3776, 3857, 3856
450, 455, 456, 537, 536, 3776, 3777, 3858, 3857
451, 456, 457, 538, 537, 3777, 3778, 3859, 3858
452, 457, 458, 539, 538, 3778, 3779, 3860, 3859
453, 458, 459, 540, 539, 3779, 3780, 3861, 3860
454, 459, 460, 541, 540, 3780, 3781, 3862, 3861
455, 460, 461, 542, 541, 3781, 3782, 3863, 3862
456, 461, 462, 543, 542, 3782, 3783, 3864, 3863
457, 462, 463, 544, 543, 3783, 3784, 3865, 3864
458, 463, 464, 545, 544, 3784, 3785, 3866, 3865
459, 464, 465, 546, 545, 3785, 3786, 3867, 3866
460, 465, 466, 547, 546, 3786, 3787, 3868, 3867
461, 466, 467, 548, 547, 3787, 3788, 3869, 3868
462, 467, 468, 549, 548, 3788, 3789, 3870, 3869
463, 468, 469, 550, 549, 3789, 3790, 3871, 3870
464, 469, 470, 551, 550, 3790, 3791, 3872, 3871
465, 470, 471, 552, 551, 3791, 3792, 3873, 3872
466, 471, 472, 553, 552, 3792, 3793, 3874, 3873
467, 472, 473, 554, 553, 3793, 3794, 3875, 3874
468, 473, 474, 555, 554, 3794, 3795, 3876, 3875
469, 474, 475, 556, 555, 3795, 3796, 3877, 3876
470, 475, 476, 557, 556, 3796, 3797, 3878, 3877
471, 476, 477, 558, 557, 3797, 3798, 3879, 3878
472, 477, 478, 559, 558, 3798, 3799, 3880, 3879
473, 478, 479, 560, 559, 3799, 3800, 3881, 3880
474, 479, 480, 561, 560, 3800, 3801, 3882, 3881
475, 480, 481, 562, 561, 3801, 3802, 3883, 3882
476, 481, 482, 563, 562, 3802, 3803, 3884, 3883
477, 482, 483, 564, 563, 3803, 3804, 3885, 3884
478, 483, 484, 565, 564, 3804, 3805, 3886, 3885
479, 484, 485, 566, 565, 3805, 3806, 3887, 3886
480, 485, 486, 567, 566, 3806, 3807, 3888, 3887
481, 487, 488, 569, 568, 3808, 3809, 3890, 3889
482, 488, 489, 570, 569, 3809, 3810, 3891, 3890
483, 489, 490, 571, 570, 3810, 3811, 3892, 3891
484, 490, 491, 572, 571, 3811, 3812, 3893, 3892
485, 491, 492, 573, 572, 3812, 3813, 3894, 3893
486, 492, 493, 574, 573, 3813, 3814, 3895, 3894
487, 493, 494, 575, 574, 3814, 3815, 3896, 3895
488, 494, 495, 576, 575, 3815, 3816, 3897, 3896
489, 495, 496, 577, 576, 3816, 3817, 3898, 3897
490, 496, 497, 578, 577, 3817, 3818, 3899, 3898
491, 497, 498, 579, 578, 3818, 3819, 3900, 3899
492, 498, 499, 580, 579, 3819, 3820, 3901, 3900
493, 499, 500, 581, 580, 3820, 3821, 3902, 3901
494, 500, 501, 582, 581, 3821, 3822, 3903, 3902
495, 501, 502, 583, 582, 3822, 3823, 3904, 3903
496, 502, 503, 584, 583, 3823, 3824, 3905, 3904
497, 503, 504, 585, 584, 3824, 3825, 3906, 3905
498, 504, 505, 586, 585, 3825, 3826, 3907, 3906
499, 505, 506, 587, 586, 3826, 3827, 3908, 3907
500, 506, 507, 588, 587, 3827, 3828, 3909, 3908
501, 507, 508, 589, 588, 3828, 3829, 3910, 3909
502, 508, 509, 590, 589, 3829, 3830, 3911, 3910
503, 509, 510, 591, 590, 3830, 3831, 3912, 3911
504, 510, 511, 592, 591, 3831, 3832, 3913, 3912
505, 511, 512, 593, 592, 3832, 3833, 3914, 3913
506, 512, 513, 594, 593, 3833, 3834, 3915, 3914
507, 513, 514, 595, 594, 3834, 3835, 3916, 3915
508, 514, 515, 596, 595, 3835, 3836, 3917, 3916
509, 515, 516, 597, 596, 3836, 3837, 3918, 3917
510, 516, 517, 598, 597, 3837, 3838, 3919, 3918
511, 517, 518, 599, 598, 3838, 3839, 3920, 3919
512, 518, 519, 600, 599, 3839, 3840, 3921, 3920
513, 519, 520, 601, 600, 3840, 3841, 3922, 3921
514, 520, 521, 602, 601, 3841, 3842, 3923, 3922
515, 521, 522, 603, 602, 3842, 3843, 3924, 3923
516, 522, 523, 604, 603, 3843, 3844, 3925, 3924
517, 523, 524, 605, 604, 3844, 3845, 3926, 3925
518, 524, 525, 606, 605, 3845, 3846, 3927, 3926
519, 525, 526, 607, 606, 3846, 3847, 3928, 3927
520, 526, 527, 608, 607, 3847, 3848, 3929, 3928
521, 527, 528, 609, 608, 3848, 3849, 3930, 3929
522, 528, 529, 610, 609, 3849, 3850, 3931, 3930
523, 529, 530, 611, 610, 3850, 3851, 3932, 3931
524, 530, 531, 612, 611, 3851, 3852, 3933, 3932
525, 531, 532, 613, 612, 3852, 3853, 3934, 3933
526, 532, 533, 614, 613, 3853, 3854, 3935, 3934
527, 533, 534, 615, 614, 3854, 3855, 3936, 3935
528, 534, 535, 616, 615, 3855, 3856, 3937, 3936
529, 535, 536, 617, 616, 3856, 3857, 3938, 3937
530, 536, 537, 618, 617, 3857, 3858, 3939, 3938
531, 537, 538, 619, 618, 3858, 3859, 3940, 3939
532, 538, 539, 620, 619, 3859, 3860, 3941, 3940
533, 539, 540, 621, 620, 3860, 3861, 3942, 3941
534, 540, 541, 622, 621, 3861, 3862, 3943, 3942
535, 541, 542, 623, 622, 3862, 3863, 3944, 3943
536, 542, 543, 624, 623, 3863, 3864, 3945, 3944
537, 543, 544, 625, 624, 3864, 3865, 3946, 3945
538, 544, 545, 626, 625, 3865, 3866, 3947, 3946
539, 545, 546, 627, 626, 3866, 3867, 3948, 3947
540, 546, 547, 628, 627, 3867, 3868, 3949, 3948
541, 547, 548, 629, 628, 3868, 3869, 3950, 3949
542, 548, 549, 630, 629, 3869, 3870, 3951, 3950
543, 549, 550, 631, 630, 3870, 3871, 3952, 3951
544, 550, 551, 632, 631, 3871, 3872, 3953, 3952
545, 551, 552, 633, 632, 3872, 3873, 3954, 3953
546, 552, 553, 634, 633, 3873, 3874, 3955, 3954
547, 553, 554, 635, 634, 3874, 3875, 3956, 3955
548, 554, 555, 636, 635, 3875, 3876, 3957, 3956
549, 555, 556, 637, 636, 3876, 3877, 3958, 3957
550, 556, 557, 638, 637, 3877, 3878, 3959, 3958
551, 557, 558, 639, 638, 3878, 3879, 3960, 3959
552, 558, 559, 640, 639, 3879, 3880, 3961, 3960
553, 559, 560, 641, 640, 3880, 3881, 3962, 3961
554, 560, 561, 642, 641, 3881, 3882, 3963, 3962
555, 561, 562, 643, 642, 3882, 3883, 3964, 3963
556, 562, 563, 644, 643, 3883, 3884, 3965, 3964
557, 563, 564, 645, 644, 3884, 3885, 3966, 3965
558, 564, 565, 646, 645, 3885, 3886, 3967, 3966
559, 565, 566, 647, 646, 3886, 3887, 3968, 3967
560, 566, 567, 648, 647, 3887, 3888, 3969, 3968
561, 568, 569, 650, 649, 3889, 3890, 3971, 3970
562, 569, 570, 651, 650, 3890, 3891, 3972, 3971
563, 570, 571, 652, 651, 3891, 3892, 3973, 3972
564, 571, 572, 653, 652, 3892, 3893, 3974, 3973
565, 572, 573, 654, 653, 3893, 3894, 3975, 3974
566, 573, 574, 655, 654, 3894, 3895, 3976, 3975
567, 574, 575, 656, 655, 3895, 3896, 3977, 3976
568, 575, 576, 657, 656, 3896, 3897, 3978, 3977
569, 576, 577, 658, 657, 3897, 3898, 3979, 3978
570, 577, 578, 659, 658, 3898, 3899, 3980, 3979
571, 578, 579, 660, 659, 3899, 3900, 3981, 3980
572, 579, 580, 661, 660, 3900, 3901, 3982, 3981
573, 580, 581, 662, 661, 3901, 3902, 3983, 3982
574, 581, 582, 663, 662, 3902, 3903, 3984, 3983
575, 582, 583, 664, 663, 3903, 3904, 3985, 3984
576, 583, 584, 665, 664, 3904, 3905, 3986, 3985
577, 584, 585, 666, 665, 3905, 3906, 3987, 3986
578, 585, 586, 667, 666, 3906, 3907, 3988, 3987
579, 586, 587, 668, 667, 3907, 3908, 3989, 3988
580, 587, 588, 669, 668, 3908, 3909, 3990, 3989
581, 588, 589, 670, 669, 3909, 3910, 3991, 3990
582, 589, 590, 671, 670, 3910, 3911, 3992, 3991
583, 590, 591, 672, 671, 3911, 3912, 3993, 3992
584, 591, 592, 673, 672, 3912, 3913, 3994, 3993
585, 592, 593, 674, 673, 3913, 3914, 3995, 3994
586, 593, 594, 675, 674, 3914, 3915, 3996, 3995
587, 594, 595, 676, 675, 3915, 3916, 3997, 3996
588, 595, 596, 677, 676, 3916, 3917, 3998, 3997
589, 596, 597, 678, 677, 3917, 3918, 3999, 3998
590, 597, 598, 679, 678, 3918, 3919, 4000, 3999
591, 598, 599, 680, 679, 3919, 3920, 4001, 4000
592, 599, 600, 681, 680, 3920, 3921, 4002, 4001
593, 600, 601, 682, 681, 3921, 3922, 4003, 4002
594, 601, 602, 683, 682, 3922, 3923, 4004, 4003
595, 602, 603, 684, 683, 3923, 3924, 4005, 4004
596, 603, 604, 685, 684, 3924, 3925, 4006, 4005
597, 604, 605, 686, 685, 3925, 3926, 4007, 4006
598, 605, 606, 687, 686, 3926, 3927, 4008, 4007
599, 606, 607, 688, 687, 3927, 3928, 4009, 4008
600, 607, 608, 689, 688, 3928, 3929, 4010, 4009
601, 608, 609, 690, 689, 3929, 3930, 4011, 4010
602, 609, 610, 691, 690, 3930, 3931, 4012, 4011
603, 610, 611, 692, 691, 3931, 3932, 4013, 4012
604, 611, 612, 693, 692, 3932, 3933, 4014, 4013
605, 612, 613, 694, 693, 3933, 3934, 4015, 4014
606, 613, 614, 695, 694, 3934, 3935, 4016, 4015
607, 614, 615, 696, 695, 3935, 3936, 4017, 4016
608, 615, 616, 697, 696, 3936, 3937, 4018, 4017
609, 616, 617, 698, 697, 3937, 3938, 4019, 4018
610, 617, 618, 699, 698, 3938, 3939, 4020, 4019
611, 618, 619, 700, 699, 3939, 3940, 4021, 4020
612, 619, 620, 701, 700, 3940, 3941, 4022, 4021
613, 620, 621, 702, 701, 3941, 3942, 4023, 4022
614, 621, 622, 703, 702, 3942, 3943, 4024, 4023
615, 622, 623, 704, 703, 3943, 3944, 4025, 4024
616, 623, 624, 705, 704, 3944, 3945, 4026, 4025
617, 624, 625, 706, 705, 3945, 3946, 4027, 4026
618, 625, 626, 707, 706, 3946, 3947, 4028, 4027
619, 626, 627, 708, 707, 3947, 3948, 4029, 4028
620, 627, 628, 709, 708, 3948, 3949, 4030, 4029
621, 628, 629, 710, 709, 3949, 3950, 4031, 4030
622, 629, 630, 711, 710, 3950, 3951, 4032, 4031
623, 630, 631, 712, 711, 3951, 3952, 4033, 4032
624, 631, 632, 713, 712, 3952, 3953, 4034, 4033
625, 632, 633, 714, 713, 3953, 3954, 4035, 4034
626, 633, 634, 715, 714, 3954, 3955, 4036, 4035
627, 634, 635, 716, 715, 3955, 3956, 4037, 4036
628, 635, 636, 717, 716, 3956, 3957, 4038, 4037
629, 636, 637, 718, 717, 3957, 3958, 4039, 4038
630, 637, 638, 719, 718, 3958, 3959, 4040, 4039
631, 638, 639, 720, 719, 3959, 3960, 4041, 4040
632, 639, 640, 721, 720, 3960, 3961, 4042, 4041
633, 640, 641, 722, 721, 3961, 3962, 4043, 4042
634, 641, 642, 723, 722, 3962, 3963, 4044, 4043
635, 642, 643, 724, 723, 3963, 3964, 4045, 4044
636, 643, 644, 725, 724, 3964, 3965, 4046, 4045
637, 644, 645, 726, 725, 3965, 3966, 4047, 4046
638, 645, 646, 727, 726, 3966, 3967, 4048, 4047
639, 646, 647, 728, 727, 3967, 3968, 4049, 4048
640, 647, 648, 729, 728, 3968, 3969, 4050, 4049
641, 649, 650, 731, 730, 3970, 3971, 4052, 4051
642, 650, 651, 732, 731, 3971, 3972, 4053, 4052
643, 651, 652, 733, 732, 3972, 3973, 4054, 4053
644, 652, 653, 734, 733, 3973, 3974, 4055, 4054
645, 653, 654, 735, 734, 3974, 3975, 4056, 4055
646, 654, 655, 736, 735, 3975, 3976, 4057, 4056
647, 655, 656, 737, 736, 3976, 3977, 4058, 4057
648, 656, 657, 738, 737, 3977, 3978, 4059, 4058
649, 657, 658, 739, 738, 3978, 3979, 4060, 4059
650, 658, 659, 740, 739, 3979, 3980, 4061, 4060
651, 659, 660, 741, 740, 3980, 3981, 4062, 4061
652, 660, 661, 742, 741, 3981, 3982, 4063, 4062
653, 661, 662, 743, 742, 3982, 3983, 4064, 4063
654, 662, 663, 744, 743, 3983, 3984, 4065, 4064
655, 663, 664, 745, 744, 3984, 3985, 4066, 4065
656, 664, 665, 746, 745, 3985, 3986, 4067, 4066
657, 665, 666, 747, 746, 3986, 3987, 4068, 4067
658, 666, 667, 748, 747, 3987, 3988, 4069, 4068
659, 667, 668, 749, 748, 3988, 3989, 4070, 4069
660, 668, 669, 750, 749, 3989, 3990, 4071, 4070
661, 669, 670, 751, 750, 3990, 3991, 4072, 4071
662, 670, 671, 752, 751, 3991, 3992, 4073, 4072
663, 671, 672, 753, 752, 3992, 3993, 4074, 4073
664, 672, 673, 754, 753, 3993, 3994, 4075, 4074
665, 673, 674, 755, 754, 3994, 3995, 4076, 4075
666, 674, 675, 756, 755, 3995, 3996, 4077, 4076
667, 675, 676, 757, 756, 3996, 3997, 4078, 4077
668, 676, 677, 758, 757, 3997, 3998, 4079, 4078
669, 677, 678, 759, 758, 3998, 3999, 4080, 4079
670, 678, 679, 760, 759, 3999, 4000, 4081, 4080
671, 679, 680, 761, 760, 4000, 4001, 4082, 4081
672, 680, 681, 762, 761, 4001, 4002, 4083, 4082
673, 681, 682, 763, 762, 4002, 4003, 4084, 4083
674, 682, 683, 764, 763, 4003, 4004, 4085, 4084
675, 683, 684, 765, 764, 4004, 4005, 4086, 4085
676, 684, 685, 766, 765, 4005, 4006, 4087, 4086
677, 685, 686, 767, 766, 4006, 4007, 4088, 4087
678, 686, 687, 768, 767, 4007, 4008, 4089, 4088
679, 687, 688, 769, 768, 4008, 4009, 4090, 4089
680, 688, 689, 770, 769, 4009, 4010, 4091, 4090
681, 689, 690, 771, 770, 4010, 4011, 4092, 4091
682, 690, 691, 772, 771, 4011, 4012, 4093, 4092
683, 691, 692, 773, 772, 4012, 4013, 4094, 4093
684, 692, 693, 774, 773, 4013, 4014, 4095, 4094
685, 693, 694, 775, 774, 4014, 4015, 4096, 4095
686, 694, 695, 776, 775, 4015, 4016, 4097, 4096
687, 695, 696, 777, 776, 4016, 4017, 4098, 4097
688, 696, 697, 778, 777, 4017, 4018, 4099, 4098
689, 697, 698, 779, 778, 4018, 4019, 4100, 4099
690, 698, 699, 780, 779, 4019, 4020, 4101, 4100
691, 699, 700, 781, 780, 4020, 4021, 4102, 4101
692, 700, 701, 782, 781, 4021, 4022, 4103, 4102
693, 701, 702, 783, 782, 4022, 4023, 4104, 4103
694, 702, 703, 784, 783, 4023, 4024, 4105, 4104
695, 703, 704, 785, 784, 4024, 4025, 4106, 4105
696, 704, 705, 786, 785, 4025, 4026, 4107, 4106
697, 705, 706, 787, 786, 4026, 4027, 4108, 4107
698, 706, 707, 788, 787, 4027, 4028, 4109, 4108
699, 707, 708, 789, 788, 4028, 4029, 4110, 4109
700, 708, 709, 790, 789, 4029, 4030, 4111, 4110
701, 709, 710, 791, 790, 4030, 4031, 4112, 4111
702, 710, 711, 792, 791, 4031, 4032, 4113, 4112
703, 711, 712, 793, 792, 4032, 4033, 4114, 4113
704, 712, 713, 794, 793, 4033, 4034, 4115, 4114
705, 713, 714, 795, 794, 4034, 4035, 4116, 4115
706, 714, 715, 796, 795, 4035, 4036, 4117, 4116
707, 715, 716, 797, 796, 4036, 4037, 4118, 4117
708, 716, 717, 798, 797, 4037, 4038, 4119, 4118
709, 717, 718, 799, 798, 4038, 4039, 4120, 4119
710, 718, 719, 800, 799, 4039, 4040, 4121, 4120
711, 719, 720, 801, 800, 4040, 4041, 4122, 4121
712, 720, 721, 802, 801, 4041, 4042, 4123, 4122
713, 721, 722, 803, 802, 4042, 4043, 4124, 4123
714, 722, 723, 804, 803, 4043, 4044, 4125, 4124
715, 723, 724, 805, 804, 4044, 4045, 4126, 4125
716, 724, 725, 806, 805, 4045, 4046, 4127, 4126
717, 725, 726, 807, 806, 4046, 4047, 4128, 4127
718, 726, 727, 808, 807, 4047, 4048, 4129, 4128
719, 727, 728, 809, 808, 4048, 4049, 4130, 4129
720, 728, 729, 810, 809, 4049, 4050, 4131, 4130
721, 730, 731, 812, 811, 4051, 4052, 4133, 4132
722, 731, 732, 813, 812, 4052, 4053, 4134, 4133
723, 732, 733, 814, 813, 4053, 4054, 4135, 4134
724, 733, 734, 815, 814, 4054, 4055, 4136, 4135
725, 734, 735, 816, 815, 4055, 4056, 4137, 4136
726, 735, 736, 817, 816, 4056, 4057, 4138, 4137
727, 736, 737, 818, 817, 4057, 4058, 4139, 4138
728, 737, 738, 819, 818, 4058, 4059, 4140, 4139
729, 738, 739, 820, 819, 4059, 4060, 4141, 4140
730, 739, 740, 821, 820, 4060, 4061, 4142, 4141
731, 740, 741, 822, 821, 4061, 4062, 4143, 4142
732, 741, 742, 823, 822, 4062, 4063, 4144, 4143
733, 742, 743, 824, 823, 4063, 4064, 4145, 4144
734, 743, 744, 825, 824, 4064, 4065, 4146, 4145
735, 744, 745, 826, 825, 4065, 4066, 4147, 4146
736, 745, 746, 827, 826, 4066, 4067, 4148, 4147
737, 746, 747, 828, 827, 4067, 4068, 4149, 4148
738, 747, 748, 829, 828, 4068, 4069, 4150, 4149
739, 748, 749, 830, 829, 4069, 4070, 4151, 4150
740, 749, 750, 831, 830, 4070, 4071, 4152, 4151
741, 750, 751, 832, 831, 4071, 4072, 4153, 4152
742, 751, 752, 833, 832, 4072, 4073, 4154, 4153
743, 752, 753, 834, 833, 4073, 4074, 4155, 4154
744, 753, 754, 835, 834, 4074, 4075, 4156, 4155
745, 754, 755, 836, 835, 4075, 4076, 4157, 4156
746, 755, 756, 837, 836, 4076, 4077, 4158, 4157
747, 756, 757, 838, 837, 4077, 4078, 4159, 4158
748, 757, 758, 839, 838, 4078, 4079, 4160, 4159
749, 758, 759, 840, 839, 4079, 4080, 4161, 4160
750, 759, 760, 841, 840, 4080, 4081, 4162, 4161
751, 760, 761, 842, 841, 4081, 4082, 4163, 4162
752, 761, 762, 843, 842, 4082, 4083, 4164, 4163
753, 762, 763, 844, 843, 4083, 4084, 4165, 4164
754, 763, 764, 845, 844, 4084, 4085, 4166, 4165
755, 764, 765, 846, 845, 4085, 4086, 4167, 4166
756, 765, 766, 847, 846, 4086, 4087, 4168, 4167
757, 766, 767, 848, 847, 4087, 4088, 4169, 4168
758, 767, 768, 849, 848, 4088, 4089, 4170, 4169
759, 768, 769, 850, 849, 4089, 4090, 4171, 4170
760, 769, 770, 851, 850, 4090, 4091, 4172, 4171
761, 770, 771, 852, 851, 4091, 4092, 4173, 4172
762, 771, 772, 853, 852, 4092, 4093, 4174, 4173
763, 772, 773, 854, 853, 4093, 4094, 4175, 4174
764, 773, 774, 855, 854, 4094, 4095, 4176, 4175
765, 774, 775, 856, 855, 4095, 4096, 4177, 4176
766, 775, 776, 857, 856, 4096, 4097, 4178, 4177
767, 776, 777, 858, 857, 4097, 4098, 4179, 4178
768, 777, 778, 859, 858, 4098, 4099, 4180, 4179
769, 778, 779, 860, 859, 4099, 4100, 4181, 4180
770, 779, 780, 861, 860, 4100, 4101, 4182, 4181
771, 780, 781, 862, 861, 4101, 4102, 4183, 4182
772, 781, 782, 863, 862, 4102, 4103, 4184, 4183
773, 782, 783, 864, 863, 4103, 4104, 4185, 4184
774, 783, 784, 865, 864, 4104, 4105, 4186, 4185
775, 784, 785, 866, 865, 4105, 4106, 4187, 4186
776, 785, 786, 867, 866, 4106, 4107, 4188, 4187
777, 786, 787, 868, 867, 4107, 4108, 4189, 4188
778, 787, 788, 869, 868, 4108, 4109, 4190, 4189
779, 788, 789, 870, 869, 4109, 4110, 4191, 4190
780, 789, 790, 871, 870, 4110, 4111, 4192, 4191
781, 790, 791, 872, 871, 4111, 4112, 4193, 4192
782, 791, 792, 873, 872, 4112, 4113, 4194, 4193
783, 792, 793, 874, 873, 4113, 4114, 4195, 4194
784, 793, 794, 875, 874, 4114, 4115, 4196, 4195
785, 794, 795, 876, 875, 4115, 4116, 4197, 4196
786, 795, 796, 877, 876, 4116, 4117, 4198, 4197
787, 796, 797, 878, 877, 4117, 4118, 4199, 4198
788, 797, 798, 879, 878, 4118, 4119, 4200, 4199
789, 798, 799, 880, 879, 4119, 4120, 4201, 4200
790, 799, 800, 881, 880, 4120, 4121, 4202, 4201
791, 800, 801, 882, 881, 4121, 4122, 4203, 4202
792, 801, 802, 883, 882, 4122, 4123, 4204, 4203
793, 802, 803, 884, 883, 4123, 4124, 4205, 4204
794, 803, 804, 885, 884, 4124, 4125, 4206, 4205
795, 804, 805, 886, 885, 4125, 4126, 4207, 4206
796, 805, 806, 887, 886, 4126, 4127, 4208, 4207
797, 806, 807, 888, 887, 4127, 4128, 4209, 4208
798, 807, 808, 889, 888, 4128, 4129, 4210, 4209
799, 808, 809, 890, 889, 4129, 4130, 4211, 4210
800, 809, 810, 891, 890, 4130, 4131, 4212, 4211
801, 811, 812, 893, 892, 4132, 4133, 4214, 4213
802, 812, 813, 894, 893, 4133, 4134, 4215, 4214
803, 813, 814, 895, 894, 4134, 4135, 4216, 4215
804, 814, 815, 896, 895, 4135, 4136, 4217, 4216
805, 815, 816, 897, 896, 4136, 4137, 4218, 4217
806, 816, 817, 898, 897, 4137, 4138, 4219, 4218
807, 817, 818, 899, 898, 4138, 4139, 4220, 4219
808, 818, 819, 900, 899, 4139, 4140, 4221, 4220
809, 819, 820, 901, 900, 4140, 4141, 4222, 4221
810, 820, 821, 902, 901, 4141, 4142, 4223, 4222
811, 821, 822, 903, 902, 4142, 4143, 4224, 4223
812, 822, 823, 904, 903, 4143, 4144, 4225, 4224
813, 823, 824, 905, 904, 4144, 4145, 4226, 4225
814, 824, 825, 906, 905, 4145, 4146, 4227, 4226
815, 825, 826, 907, 906, 4146, 4147, 4228, 4227
816, 826, 827, 908, 907, 4147, 4148, 4229, 4228
817, 827, 828, 909, 908, 4148, 4149, 4230, 4229
818, 828, 829, 910, 909, 4149, 4150, 4231, 4230
819, 829, 830, 911, 910, 4150, 4151, 4232, 4231
820, 830, 831, 912, 911, 4151, 4152, 4233, 4232
821, 831, 832, 913, 912, 4152, 4153, 4234, 4233
822, 832, 833, 914, 913, 4153, 4154, 4235, 4234
823, 833, 834, 915, 914, 4154, 4155, 4236, 4235
824, 834, 835, 916, 915, 4155, 4156, 4237, 4236
825, 835, 836, 917, 916, 4156, 4157, 4238, 4237
826, 836, 837, 918, 917, 4157, 4158, 4239, 4238
827, 837, 838, 919, 918, 4158, 4159, 4240, 4239
828, 838, 839, 920, 919, 4159, 4160, 4241, 4240
829, 839, 840, 921, 920, 4160, 4161, 4242, 4241
830, 840, 841, 922, 921, 4161, 4162, 4243, 4242
831, 841, 842, 923, 922, 4162, 4163, 4244, 4243
832, 842, 843, 924, 923, 4163, 4164, 4245, 4244
833, 843, 844, 925, 924, 4164, 4165, 4246, 4245
834, 844, 845, 926, 925, 4165, 4166, 4247, 4246
835, 845, 846, 927, 926, 4166, 4167, 4248, 4247
836, 846, 847, 928, 927, 4167, 4168, 4249, 4248
837, 847, 848, 929, 928, 4168, 4169, 4250, 4249
838, 848, 849, 930, 929, 4169, 4170, 4251, 4250
839, 849, 850, 931, 930, 4170, 4171, 4252, 4251
840, 850, 851, 932, 931, 4171, 4172, 4253, 4252
841, 851, 852, 933, 932, 4172, 4173, 4254, 4253
842, 852, 853, 934, 933, 4173, 4174, 4255, 4254
843, 853, 854, 935, 934, 4174, 4175, 4256, 4255
844, 854, 855, 936, 935, 4175, 4176, 4257, 4256
845, 855, 856, 937, 936, 4176, 4177, 4258, 4257
846, 856, 857, 938, 937, 4177, 4178, 4259, 4258
847, 857, 858, 939, 938, 4178, 4179, 4260, 4259
848, 858, 859, 940, 939, 4179, 4180, 4261, 4260
849, 859, 860, 941, 940, 4180, 4181, 4262, 4261
850, 860, 861, 942, 941, 4181, 4182, 4263, 4262
851, 861, 862, 943, 942, 4182, 4183, 4264, 4263
852, 862, 863, 944, 943, 4183, 4184, 4265, 4264
853, 863, 864, 945, 944, 4184, 4185, 4266, 4265
854, 864, 865, 946, 945, 4185, 4186, 4267, 4266
855, 865, 866, 947, 946, 4186, 4187, 4268, 4267
856, 866, 867, 948, 947, 4187, 4188, 4269, 4268
857, 867, 868, 949, 948, 4188, 4189, 4270, 4269
858, 868, 869, 950, 949, 4189, 4190, 4271, 4270
859, 869, 870, 951, 950, 4190, 4191, 4272, 4271
860, 870, 871, 952, 951, 4191, 4192, 4273, 4272
861, 871, 872, 953, 952, 4192, 4193, 4274, 4273
862, 872, 873, 954, 953, 4193, 4194, 4275, 4274
863, 873, 874, 955, 954, 4194, 4195, 4276, 4275
864, 874, 875, 956, 955, 4195, 4196, 4277, 4276
865, 875, 876, 957, 956, 4196, 4197, 4278, 4277
866, 876, 877, 958, 957, 4197, 4198, 4279, 4278
867, 877, 878, 959, 958, 4198, 4199, 4280, 4279
868, 878, 879, 960, 959, 4199, 4200, 4281, 4280
869, 879, 880, 961, 960, 4200, 4201, 4282, 4281
870, 880, 881, 962, 961, 4201, 4202, 4283, 4282
871, 881, 882, 963, 962, 4202, 4203, 4284, 4283
872, 882, 883, 964, 963, 4203, 4204, 4285, 4284
873, 883, 884, 965, 964, 4204, 4205, 4286, 4285
874, 884, 885, 966, 965, 4205, 4206, 4287, 4286
875, 885, 886, 967, 966, 4206, 4207, 4288, 4287
876, 886, 887, 968, 967, 4207, 4208, 4289, 4288
877, 887, 888, 969, 968, 4208, 4209, 4290, 4289
878, 888, 889, 970, 969, 4209, 4210, 4291, 4290
879, 889, 890, 971, 970, 4210, 4211, 4292, 4291
880, 890, 891, 972, 971, 4211, 4212, 4293, 4292
881, 892, 893, 974, 973, 4213, 4214, 4295, 4294
882, 893, 894, 975, 974, 4214, 4215, 4296, 4295
883, 894, 895, 976, 975, 4215, 4216, 4297, 4296
884, 895, 896, 977, 976, 4216, 4217, 4298, 4297
885, 896, 897, 978, 977, 4217, 4218, 4299, 4298
886, 897, 898, 979, 978, 4218, 4219, 4300, 4299
887, 898, 899, 980, 979, 4219, 4220, 4301, 4300
888, 899, 900, 981, 980, 4220, 4221, 4302, 4301
889, 900, 901, 982, 981, 4221, 4222, 4303, 4302
890, 901, 902, 983, 982, 4222, 4223, 4304, 4303
891, 902, 903, 984, 983, 4223, 4224, 4305, 4304
892, 903, 904, 985, 984, 4224, 4225, 4306, 4305
893, 904, 905, 986, 985, 4225, 4226, 4307, 4306
894, 905, 906, 987, 986, 4226, 4227, 4308, 4307
895, 906, 907, 988, 987, 4227, 4228, 4309, 4308
896, 907, 908, 989, 988, 4228, 4229, 4310, 4309
897, 908, 909, 990, 989, 4229, 4230, 4311, 4310
898, 909, 910, 991, 990, 4230, 4231, 4312, 4311
899, 910, 911, 992, 991, 4231, 4232, 4313, 4312
900, 911, 912, 993, 992, 4232, 4233, 4314, 4313
901, 912, 913, 994, 993, 4233, 4234, 4315, 4314
902, 913, 914, 995, 994, 4234, 4235, 4316, 4315
903, 914, 915, 996, 995, 4235, 4236, 4317, 4316
904, 915, 916, 997, 996, 4236, 4237, 4318, 4317
905, 916, 917, 998, 997, 4237, 4238, 4319, 4318
906, 917, 918, 999, 998, 4238, 4239, 4320, 4319
907, 918, 919, 1000, 999, 4239, 4240, 4321, 4320
908, 919, 920, 1001, 1000, 4240, 4241, 4322, 4321
909, 920, 921, 1002, 1001, 4241, 4242, 4323, 4322
910, 921, 922, 1003, 1002, 4242, 4243, 4324, 4323
911, 922, 923, 1004, 1003, 4243, 4244, 4325, 4324
912, 923, 924, 1005, 1004, 4244, 4245, 4326, 4325
913, 924, 925, 1006, 1005, 4245, 4246, 4327, 4326
914, 925, 926, 1007, 1006, 4246, 4247, 4328, 4327
915, 926, 927, 1008, 1007, 4247, 4248, 4329, 4328
916, 927, 928, 1009, 1008, 4248, 4249, 4330, 4329
917, 928, 929, 1010, 1009, 4249, 4250, 4331, 4330
918, 929, 930, 1011, 1010, 4250, 4251, 4332, 4331
919, 930, 931, 1012, 1011, 4251, 4252, 4333, 4332
920, 931, 932, 1013, 1012, 4252, 4253, 4334, 4333
921, 932, 933, 1014, 1013, 4253, 4254, 4335, 4334
922, 933, 934, 1015, 1014, 4254, 4255, 4336, 4335
923, 934, 935, 1016, 1015, 4255, 4256, 4337, 4336
924, 935, 936, 1017, 1016, 4256, 4257, 4338, 4337
925, 936, 937, 1018, 1017, 4257, 4258, 4339, 4338
926, 937, 938, 1019, 1018, 4258, 4259, 4340, 4339
927, 938, 939, 1020, 1019, 4259, 4260, 4341, 4340
928, 939, 940, 1021, 1020, 4260, 4261, 4342, 4341
929, 940, 941, 1022, 1021, 4261, 4262, 4343, 4342
930, 941, 942, 1023, 1022, 4262, 4263, 4344, 4343
931, 942, 943, 1024, 1023, 4263, 4264, 4345, 4344
932, 943, 944, 1025, 1024, 4264, 4265, 4346, 4345
933, 944, 945, 1026, 1025, 4265, 4266, 4347, 4346
934, 945, 946, 1027, 1026, 4266, 4267, 4348, 4347
935, 946, 947, 1028, 1027, 4267, 4268, 4349, 4348
936, 947, 948, 1029, 1028, 4268, 4269, 4350, 4349
937, 948, 949, 1030, 1029, 4269, 4270, 4351, 4350
938, 949, 950, 1031, 1030, 4270, 4271, 4352, 4351
939, 950, 951, 1032, 1031, 4271, 4272, 4353, 4352
940, 951, 952, 1033, 1032, 4272, 4273, 4354, 4353
941, 952, 953, 1034, 1033, 4273, 4274, 4355, 4354
942, 953, 954, 1035, 1034, 4274, 4275, 4356, 4355
943, 954, 955, 1036, 1035, 4275, 4276, 4357, 4356
944, 955, 956, 1037, 1036, 4276, 4277, 4358, 4357
945, 956, 957, 1038, 1037, 4277, 4278, 4359, 4358
946, 957, 958, 1039, 1038, 4278, 4279, 4360, 4359
947, 958, 959, 1040, 1039, 4279, 4280, 4361, 4360
948, 959, 960, 1041, 1040, 4280, 4281, 4362, 4361
949, 960, 961, 1042, 1041, 4281, 4282, 4363, 4362
950, 961, 962, 1043, 1042, 4282, 4283, 4364, 4363
951, 962, 963, 1044, 1043, 4283, 4284, 4365, 4364
952, 963, 964, 1045, 1044, 4284, 4285, 4366, 4365
953, 964, 965, 1046, 1045, 4285, 4286, 4367, 4366
954, 965, 966, 1047, 1046, 4286, 4287, 4368, 4367
955, 966, 967, 1048, 1047, 4287, 4288, 4369, 4368
956, 967, 968, 1049, 1048, 4288, 4289, 4370, 4369
957, 968, 969, 1050, 1049, 4289, 4290, 4371, 4370
958, 969, 970, 1051, 1050, 4290, 4291, 4372, 4371
959, 970, 971, 1052, 1051, 4291, 4292, 4373, 4372
960, 971, 972, 1053, 1052, 4292, 4293, 4374, 4373
961, 973, 974, 1055, 1054, 4294, 4295, 4376, 4375
962, 974, 975, 1056, 1055, 4295, 4296, 4377, 4376
963, 975, 976, 1057, 1056, 4296, 4297, 4378, 4377
964, 976, 977, 1058, 1057, 4297, 4298, 4379, 4378
965, 977, 978, 1059, 1058, 4298, 4299, 4380, 4379
966, 978, 979, 1060, 1059, 4299, 4300, 4381, 4380
967, 979, 980, 1061, 1060, 4300, 4301, 4382, 4381
968, 980, 981, 1062, 1061, 4301, 4302, 4383, 4382
969, 981, 982, 1063, 1062, 4302, 4303, 4384, 4383
970, 982, 983, 1064, 1063, 4303, 4304, 4385, 4384
971, 983, 984, 1065, 1064, 4304, 4305, 4386, 4385
972, 984, 985, 1066, 1065, 4305, 4306, 4387, 4386
973, 985, 986, 1067, 1066, 4306, 4307, 4388, 4387
974, 986, 987, 1068, 1067, 4307, 4308, 4389, 4388
975, 987, 988, 1069, 1068, 4308, 4309, 4390, 4389
976, 988, 989, 1070, 1069, 4309, 4310, 4391, 4390
977, 989, 990, 1071, 1070, 4310, 4311, 4392, 4391
978, 990, 991, 1072, 1071, 4311, 4312, 4393, 4392
979, 991, 992, 1073, 1072, 4312, 4313, 4394, 4393
980, 992, 993, 1074, 1073, 4313, 4314, 4395, 4394
981, 993, 994, 1075, 1074, 4314, 4315, 4396, 4395
982, 994, 995, 1076, 1075, 4315, 4316, 4397, 4396
983, 995, 996, 1077, 1076, 4316, 4317, 4398, 4397
984, 996, 997, 1078, 1077, 4317, 4318, 4399, 4398
985, 997, 998, 1079, 1078, 4318, 4319, 4400, 4399
986, 998, 999, 1080, 1079, 4319, 4320, 4401, 4400
987, 999, 1000, 1081, 1080, 4320, 4321, 4402, 4401
988, 1000, 1001, 1082, 1081, 4321, 4322, 4403, 4402
989, 1001, 1002, 1083, 1082, 4322, 4323, 4404, 4403
990, 1002, 1003, 1084, 1083, 4323, 4324, 4405, 4404
991, 1003, 1004, 1085, 1084, 4324, 4325, 4406, 4405
992, 1004, 1005, 1086, 1085, 4325, 4326, 4407, 4406
993, 1005, 1006, 1087, 1086, 4326, 4327, 4408, 4407
994, 1006, 1007, 1088, 1087, 4327, 4328, 4409, 4408
995, 1007, 1008, 1089, 1088, 4328, 4329, 4410, 4409
996, 1008, 1009, 1090, 1089, 4329, 4330, 4411, 4410
997, 1009, 1010, 1091, 1090, 4330, 4331, 4412, 4411
998, 1010, 1011, 1092, 1091, 4331, 4332, 4413, 4412
999, 1011, 1012, 1093, 1092, 4332, 4333, 4414, 4413
1000, 1012, 1013, 1094, 1093, 4333, 4334, 4415, 4414
1001, 1013, 1014, 1095, 1094, 4334, 4335, 4416, 4415
1002, 1014, 1015, 1096, 1095, 4335, 4336, 4417, 4416
1003, 1015, 1016, 1097, 1096, 4336, 4337, 4418, 4417
1004, 1016, 1017, 1098, 1097, 4337, 4338, 4419, 4418
1005, 1017, 1018, 1099, 1098, 4338, 4339, 4420, 4419
1006, 1018, 1019, 1100, 1099, 4339, 4340, 4421, 4420
1007, 1019, 1020, 1101, 1100, 4340, 4341, 4422, 4421
1008, 1020, 1021, 1102, 1101, 4341, 4342, 4423, 4422
1009, 1021, 1022, 1103, 1102, 4342, 4343, 4424, 4423
1010, 1022, 1023, 1104, 1103, 4343, 4344, 4425, 4424
1011, 1023, 1024, 1105, 1104, 4344, 4345, 4426, 4425
1012, 1024, 1025, 1106, 1105, 4345, 4346, 4427, 4426
1013, 1025, 1026, 1107, 1106, 4346, 4347, 4428, 4427
1014, 1026, 1027, 1108, 1107, 4347, 4348, 4429, 4428
1015, 1027, 1028, 1109, 1108, 4348, 4349, 4430, 4429
1016, 1028, 1029, 1110, 1109, 4349, 4350, 4431, 4430
1017, 1029, 1030, 1111, 1110, 4350, 4351, 4432, 4431
1018, 1030, 1031, 1112, 1111, 4351, 4352, 4433, 4432
1019, 1031, 1032, 1113, 1112, 4352, 4353, 4434, 4433
1020, 1032, 1033, 1114, 1113, 4353, 4354, 4435, 4434
1021, 1033, 1034, 1115, 1114, 4354, 4355, 4436, 4435
1022, 1034, 1035, 1116, 1115, 4355, 4356, 4437, 4436
1023, 1035, 1036, 1117, 1116, 4356, 4357, 4438, 4437
1024, 1036, 1037, 1118, 1117, 4357, 4358, 4439, 4438
1025, 1037, 1038, 1119, 1118, 4358, 4359, 4440, 4439
1026, 1038, 1039, 1120, 1119, 4359, 4360, 4441, 4440
1027, 1039, 1040, 1121, 1120, 4360, 4361, 4442, 4441
1028, 1040, 1041, 1122, 1121, 4361, 4362, 4443, 4442
1029, 1041, 1042, 1123, 1122, 4362, 4363, 4444, 4443
1030, 1042, 1043, 1124, 1123, 4363, 4364, 4445, 4444
1031, 1043, 1044, 1125, 1124, 4364, 4365, 4446, 4445
1032, 1044, 1045, 1126, 1125, 4365, 4366, 4447, 4446
1033, 1045, 1046, 1127, 1126, 4366, 4367, 4448, 4447
1034, 1046, 1047, 1128, 1127, 4367, 4368, 4449, 4448
1035, 1047, 1048, 1129, 1128, 4368, 4369, 4450, 4449
1036, 1048, 1049, 1130, 1129, 4369, 4370, 4451, 4450
1037, 1049, 1050, 1131, 1130, 4370, 4371, 4452, 4451
1038, 1050, 1051, 1132, 1131, 4371, 4372, 4453, 4452
1039, 1051, 1052, 1133, 1132, 4372, 4373, 4454, 4453
1040, 1052, 1053, 1134, 1133, 4373, 4374, 4455, 4454
1041, 1054, 1055, 1136, 1135, 4375, 4376, 4457, 4456
1042, 1055, 1056, 1137, 1136, 4376, 4377, 4458, 4457
1043, 1056, 1057, 1138, 1137, 4377, 4378, 4459, 4458
1044, 1057, 1058, 1139, 1138, 4378, 4379, 4460, 4459
1045, 1058, 1059, 1140, 1139, 4379, 4380, 4461, 4460
1046, 1059, 1060, 1141, 1140, 4380, 4381, 4462, 4461
1047, 1060, 1061, 1142, 1141, 4381, 4382, 4463, 4462
1048, 1061, 1062, 1143, 1142, 4382, 4383, 4464, 4463
1049, 1062, 1063, 1144, 1143, 4383, 4384, 4465, 4464
1050, 1063, 1064, 1145, 1144, 4384, 4385, 4466, 4465
1051, 1064, 1065, 1146, 1145, 4385, 4386, 4467, 4466
1052, 1065, 1066, 1147, 1146, 4386, 4387, 4468, 4467
1053, 1066, 1067, 1148, 1147, 4387, 4388, 4469, 4468
1054, 1067, 1068, 1149, 1148, 4388, 4389, 4470, 4469
1055, 1068, 1069, 1150, 1149, 4389, 4390, 4471, 4470
1056, 1069, 1070, 1151, 1150, 4390, 4391, 4472, 4471
1057, 1070, 1071, 1152, 1151, 4391, 4392, 4473, 4472
1058, 1071, 1072, 1153, 1152, 4392, 4393, 4474, 4473
1059, 1072, 1073, 1154, 1153, 4393, 4394, 4475, 4474
1060, 1073, 1074, 1155, 1154, 4394, 4395, 4476, 4475
1061, 1074, 1075, 1156, 1155, 4395, 4396, 4477, 4476
1062, 1075, 1076, 1157, 1156, 4396, 4397, 4478, 4477
1063, 1076, 1077, 1158, 1157, 4397, 4398, 4479, 4478
1064, 1077, 1078, 1159, 1158, 4398, 4399, 4480, 4479
1065, 1078, 1079, 1160, 1159, 4399, 4400, 4481, 4480
1066, 1079, 1080, 1161, 1160, 4400, 4401, 4482, 4481
1067, 1080, 1081, 1162, 1161, 4401, 4402, 4483, 4482
1068, 1081, 1082, 1163, 1162, 4402, 4403, 4484, 4483
1069, 1082, 1083, 1164, 1163, 4403, 4404, 4485, 4484
1070, 1083, 1084, 1165, 1164, 4404, 4405, 4486, 4485
1071, 1084, 1085, 1166, 1165, 4405, 4406, 4487, 4486
1072, 1085, 1086, 1167, 1166, 4406, 4407, 4488, 4487
1073, 1086, 1087, 1168, 1167, 4407, 4408, 4489, 4488
1074, 1087, 1088, 1169, 1168, 4408, 4409, 4490, 4489
1075, 1088, 1089, 1170, 1169, 4409, 4410, 4491, 4490
1076, 1089, 1090, 1171, 1170, 4410, 4411, 4492, 4491
1077, 1090, 1091, 1172, 1171, 4411, 4412, 4493, 4492
1078, 1091, 1092, 1173, 1172, 4412, 4413, 4494, 4493
1079, 1092, 1093, 1174, 1173, 4413, 4414, 4495, 4494
1080, 1093, 1094, 1175, 1174, 4414, 4415, 4496, 4495
1081, 1094, 1095, 1176, 1175, 4415, 4416, 4497, 4496
1082, 1095, 1096, 1177, 1176, 4416, 4417, 4498, 4497
1083, 1096, 1097, 1178, 1177, 4417, 4418, 4499, 4498
1084, 1097, 1098, 1179, 1178, 4418, 4419, 4500, 4499
1085, 1098, 1099, 1180, 1179, 4419, 4420, 4501, 4500
1086, 1099, 1100, 1181, 1180, 4420, 4421, 4502, 4501
1087, 1100, 1101, 1182, 1181, 4421, 4422, 4503, 4502
1088, 1101, 1102, 1183, 1182, 4422, 4423, 4504, 4503
1089, 1102, 1103, 1184, 1183, 4423, 4424, 4505, 4504
1090, 1103, 1104, 1185, 1184, 4424, 4425, 4506, 4505
1091, 1104, 1105, 1186, 1185, 4425, 4426, 4507, 4506
1092, 1105, 1106, 1187, 1186, 4426, 4427, 4508, 4507
1093, 1106, 1107, 1188, 1187, 4427, 4428, 4509, 4508
1094, 1107, 1108, 1189, 1188, 4428, 4429, 4510, 4509
1095, 1108, 1109, 1190, 1189, 4429, 4430, 4511, 4510
1096, 1109, 1110, 1191, 1190, 4430, 4431, 4512, 4511
1097, 1110, 1111, 1192, 1191, 4431, 4432, 4513, 4512
1098, 1111, 1112, 1193, 1192, 4432, 4433, 4514, 4513
1099, 1112, 1113, 1194, 1193, 4433, 4434, 4515, 4514
1100, 1113, 1114, 1195, 1194, 4434, 4435, 4516, 4515
1101, 1114, 1115, 1196, 1195, 4435, 4436, 4517, 4516
1102, 1115, 1116, 1197, 1196, 4436, 4437, 4518, 4517
1103, 1116, 1117, 1198, 1197, 4437, 4438, 4519, 4518
1104, 1117, 1118, 1199, 1198, 4438, 4439, 4520, 4519
1105, 1118, 1119, 1200, 1199, 4439, 4440, 4521, 4520
1106, 1119, 1120, 1201, 1200, 4440, 4441, 4522, 4521
1107, 1120, 1121, 1202, 1201, 4441, 4442, 4523, 4522
1108, 1121, 1122, 1203, 1202, 4442, 4443, 4524, 4523
1109, 1122, 1123, 1204, 1203, 4443, 4444, 4525, 4524
1110, 1123, 1124, 1205, 1204, 4444, 4445, 4526, 4525
1111, 1124, 1125, 1206, 1205, 4445, 4446, 4527, 4526
1112, 1125, 1126, 1207, 1206, 4446, 4447, 4528, 4527
1113, 1126, 1127, 1208, 1207, 4447, 4448, 4529, 4528
1114, 1127, 1128, 1209, 1208, 4448, 4449, 4530, 4529
1115, 1128, 1129, 1210, 1209, 4449, 4450, 4531, 4530
1116, 1129, 1130, 1211, 1210, 4450, 4451, 4532, 4531
1117, 1130, 1131, 1212, 1211, 4451, 4452, 4533, 4532
1118, 1131, 1132, 1213, 1212, 4452, 4453, 4534, 4533
1119, 1132, 1133, 1214, 1213, 4453, 4454, 4535, 4534
1120, 1133, 1134, 1215, 1214, 4454, 4455, 4536, 4535
1121, 1135, 1136, 1217, 1216, 4456, 4457, 4538, 4537
1122, 1136, 1137, 1218, 1217, 4457, 4458, 4539, 4538
1123, 1137, 1138, 1219, 1218, 4458, 4459, 4540, 4539
1124, 1138, 1139, 1220, 1219, 4459, 4460, 4541, 4540
1125, 1139, 1140, 1221, 1220, 4460, 4461, 4542, 4541
1126, 1140, 1141, 1222, 1221, 4461, 4462, 4543, 4542
1127, 1141, 1142, 1223, 1222, 4462, 4463, 4544, 4543
1128, 1142, 1143, 1224, 1223, 4463, 4464, 4545, 4544
1129, 1143, 1144, 1225, 1224, 4464, 4465, 4546, 4545
1130, 1144, 1145, 1226, 1225, 4465, 4466, 4547, 4546
1131, 1145, 1146, 1227, 1226, 4466, 4467, 4548, 4547
1132, 1146, 1147, 1228, 1227, 4467, 4468, 4549, 4548
1133, 1147, 1148, 1229, 1228, 4468, 4469, 4550, 4549
1134, 1148, 1149, 1230, 1229, 4469, 4470, 4551, 4550
1135, 1149, 1150, 1231, 1230, 4470, 4471, 4552, 4551
1136, 1150, 1151, 1232, 1231, 4471, 4472, 4553, 4552
1137, 1151, 1152, 1233, 1232, 4472, 4473, 4554, 4553
1138, 1152, 1153, 1234, 1233, 4473, 4474, 4555, 4554
1139, 1153, 1154, 1235, 1234, 4474, 4475, 4556, 4555
1140, 1154, 1155, 1236, 1235, 4475, 4476, 4557, 4556
1141, 1155, 1156, 1237, 1236, 4476, 4477, 4558, 4557
1142, 1156, 1157, 1238, 1237, 4477, 4478, 4559, 4558
1143, 1157, 1158, 1239, 1238, 4478, 4479, 4560, 4559
1144, 1158, 1159, 1240, 1239, 4479, 4480, 4561, 4560
1145, 1159, 1160, 1241, 1240, 4480, 4481, 4562, 4561
1146, 1160, 1161, 1242, 1241, 4481, 4482, 4563, 4562
1147, 1161, 1162, 1243, 1242, 4482, 4483, 4564, 4563
1148, 1162, 1163, 1244, 1243, 4483, 4484, 4565, 4564
1149, 1163, 1164, 1245, 1244, 4484, 4485, 4566, 4565
1150, 1164, 1165, 1246, 1245, 4485, 4486, 4567, 4566
1151, 1165, 1166, 1247, 1246, 4486, 4487, 4568, 4567
1152, 1166, 1167, 1248, 1247, 4487, 4488, 4569, 4568
1153, 1167, 1168, 1249, 1248, 4488, 4489, 4570, 4569
1154, 1168, 1169, 1250, 1249, 4489, 4490, 4571, 4570
1155, 1169, 1170, 1251, 1250, 4490, 4491, 4572, 4571
1156, 1170, 1171, 1252, 1251, 4491, 4492, 4573, 4572
1157, 1171, 1172, 1253, 1252, 4492, 4493, 4574, 4573
1158, 1172, 1173, 1254, 1253, 4493, 4494, 4575, 4574
1159, 1173, 1174, 1255, 1254, 4494, 4495, 4576, 4575
1160, 1174, 1175, 1256, 1255, 4495, 4496, 4577, 4576
1161, 1175, 1176, 1257, 1256, 4496, 4497, 4578, 4577
1162, 1176, 1177, 1258, 1257, 4497, 4498, 4579, 4578
1163, 1177, 1178, 1259, 1258, 4498, 4499, 4580, 4579
1164, 1178, 1179, 1260, 1259, 4499, 4500, 4581, 4580
1165, 1179, 1180, 1261, 1260, 4500, 4501, 4582, 4581
1166, 1180, 1181, 1262, 1261, 4501, 4502, 4583, 4582
1167, 1181, 1182, 1263, 1262, 4502, 4503, 4584, 4583
1168, 1182, 1183, 1264, 1263, 4503, 4504, 4585, 4584
1169, 1183, 1184, 1265, 1264, 4504, 4505, 4586, 4585
1170, 1184, 1185, 1266, 1265, 4505, 4506, 4587, 4586
1171, 1185, 1186, 1267, 1266, 4506, 4507, 4588, 4587
1172, 1186, 1187, 1268, 1267, 4507, 4508, 4589, 4588
1173, 1187, 1188, 1269, 1268, 4508, 4509, 4590, 4589
1174, 1188, 1189, 1270, 1269, 4509, 4510, 4591, 4590
1175, 1189, 1190, 1271, 1270, 4510, 4511, 4592, 4591
1176, 1190, 1191, 1272, 1271, 4511, 4512, 4593, 4592
1177, 1191, 1192, 1273, 1272, 4512, 4513, 4594, 4593
1178, 1192, 1193, 1274, 1273, 4513, 4514, 4595, 4594
1179, 1193, 1194, 1275, 1274, 4514, 4515, 4596, 4595
1180, 1194, 1195, 1276, 1275, 4515, 4516, 4597, 4596
1181, 1195, 1196, 1277, 1276, 4516, 4517, 4598, 4597
1182, 1196, 1197, 1278, 1277, 4517, 4518, 4599, 4598
1183, 1197, 1198, 1279, 1278, 4518, 4519, 4600, 4599
1184, 1198, 1199, 1280, 1279, 4519, 4520, 4601, 4600
1185, 1199, 1200, 1281, 1280, 4520, 4521, 4602, 4601
1186, 1200, 1201, 1282, 1281, 4521, 4522, 4603, 4602
1187, 1201, 1202, 1283, 1282, 4522, 4523, 4604, 4603
1188, 1202, 1203, 1284, 1283, 4523, 4524, 4605, 4604
1189, 1203, 1204, 1285, 1284, 4524, 4525, 4606, 4605
1190, 1204, 1205, 1286, 1285, 4525, 4526, 4607, 4606
1191, 1205, 1206, 1287, 1286, 4526, 4527, 4608, 4607
1192, 1206, 1207, 1288, 1287, 4527, 4528, 4609, 4608
1193, 1207, 1208, 1289, 1288, 4528, 4529, 4610, 4609
1194, 1208, 1209, 1290, 1289, 4529, 4530, 4611, 4610
1195, 1209, 1210, 1291, 1290, 4530, 4531, 4612, 4611
1196, 1210, 1211, 1292, 1291, 4531, 4532, 4613, 4612
1197, 1211, 1212, 1293, 1292, 4532, 4533, 4614, 4613
1198, 1212, 1213, 1294, 1293, 4533, 4534, 4615, 4614
1199, 1213, 1214, 1295, 1294, 4534, 4535, 4616, 4615
1200, 1214, 1215, 1296, 1295, 4535, 4536, 4617, 4616
1201, 1216, 1217, 1298, 1297, 4537, 4538, 4619, 4618
1202, 1217, 1218, 1299, 1298, 4538, 4539, 4620, 4619
1203, 1218, 1219, 1300, 1299, 4539, 4540, 4621, 4620
1204, 1219, 1220, 1301, 1300, 4540, 4541, 4622, 4621
1205, 1220, 1221, 1302, 1301, 4541, 4542, 4623, 4622
1206, 1221, 1222, 1303, 1302, 4542, 4543, 4624, 4623
1207, 1222, 1223, 1304, 1303, 4543, 4544, 4625, 4624
1208, 1223, 1224, 1305, 1304, 4544, 4545, 4626, 4625
1209, 1224, 1225, 1306, 1305, 4545, 4546, 4627, 4626
1210, 1225, 1226, 1307, 1306, 4546, 4547, 4628, 4627
1211, 1226, 1227, 1308, 1307, 4547, 4548, 4629, 4628
1212, 1227, 1228, 1309, 1308, 4548, 4549, 4630, 4629
1213, 1228, 1229, 1310, 1309, 4549, 4550, 4631, 4630
1214, 1229, 1230, 1311, 1310, 4550, 4551, 4632, 4631
1215, 1230, 1231, 1312, 1311, 4551, 4552, 4633, 4632
1216, 1231, 1232, 1313, 1312, 4552, 4553, 4634, 4633
1217, 1232, 1233, 1314, 1313, 4553, 4554, 4635, 4634
1218, 1233, 1234, 1315, 1314, 4554, 4555, 4636, 4635
1219, 1234, 1235, 1316, 1315, 4555, 4556, 4637, 4636
1220, 1235, 1236, 1317, 1316, 4556, 4557, 4638, 4637
1221, 1236, 1237, 1318, 1317, 4557, 4558, 4639, 4638
1222, 1237, 1238, 1319, 1318, 4558, 4559, 4640, 4639
1223, 1238, 1239, 1320, 1319, 4559, 4560, 4641, 4640
1224, 1239, 1240, 1321, 1320, 4560, 4561, 4642, 4641
1225, 1240, 1241, 1322, 1321, 4561, 4562, 4643, 4642
1226, 1241, 1242, 1323, 1322, 4562, 4563, 4644, 4643
1227, 1242, 1243, 1324, 1323, 4563, 4564, 4645, 4644
1228, 1243, 1244, 1325, 1324, 4564, 4565, 4646, 4645
1229, 1244, 1245, 1326, 1325, 4565, 4566, 4647, 4646
1230, 1245, 1246, 1327, 1326, 4566, 4567, 4648, 4647
1231, 1246, 1247, 1328, 1327, 4567, 4568, 4649, 4648
1232, 1247, 1248, 1329, 1328, 4568, 4569, 4650, 4649
1233, 1248, 1249, 1330, 1329, 4569, 4570, 4651, 4650
1234, 1249, 1250, 1331, 1330, 4570, 4571, 4652, 4651
1235, 1250, 1251, 1332, 1331, 4571, 4572, 4653, 4652
1236, 1251, 1252, 1333, 1332, 4572, 4573, 4654, 4653
1237, 1252, 1253, 1334, 1333, 4573, 4574, 4655, 4654
1238, 1253, 1254, 1335, 1334, 4574, 4575, 4656, 4655
1239, 1254, 1255, 1336, 1335, 4575, 4576, 4657, 4656
1240, 1255, 1256, 1337, 1336, 4576, 4577, 4658, 4657
1241, 1256, 1257, 1338, 1337, 4577, 4578, 4659, 4658
1242, 1257, 1258, 1339, 1338, 4578, 4579, 4660, 4659
1243, 1258, 1259, 1340, 1339, 4579, 4580, 4661, 4660
1244, 1259, 1260, 1341, 1340, 4580, 4581, 4662, 4661
1245, 1260, 1261, 1342, 1341, 4581, 4582, 4663, 4662
1246, 1261, 1262, 1343, 1342, 4582, 4583, 4664, 4663
1247, 1262, 1263, 1344, 1343, 4583, 4584, 4665, 4664
1248, 1263, 1264, 1345, 1344, 4584, 4585, 4666, 4665
1249, 1264, 1265, 1346, 1345, 4585, 4586, 4667, 4666
1250, 1265, 1266, 1347, 1346, 4586, 4587, 4668, 4667
1251, 1266, 1267, 1348, 1347, 4587, 4588, 4669, 4668
1252, 1267, 1268, 1349, 1348, 4588, 4589, 4670, 4669
1253, 1268, 1269, 1350, 1349, 4589, 4590, 4671, 4670
1254, 1269, 1270, 1351, 1350, 4590, 4591, 4672, 4671
1255, 1270, 1271, 1352, 1351, 4591, 4592, 4673, 4672
1256, 1271, 1272, 1353, 1352, 4592, 4593, 4674, 4673
1257, 1272, 1273, 1354, 1353, 4593, 4594, 4675, 4674
1258, 1273, 1274, 1355, 1354, 4594, 4595, 4676, 4675
1259, 1274, 1275, 1356, 1355, 4595, 4596, 4677, 4676
1260, 1275, 1276, 1357, 1356, 4596, 4597, 4678, 4677
1261, 1276, 1277, 1358, 1357, 4597, 4598, 4679, 4678
1262, 1277, 1278, 1359, 1358, 4598, 4599, 4680, 4679
1263, 1278, 1279, 1360, 1359, 4599, 4600, 4681, 4680
1264, 1279, 1280, 1361, 1360, 4600, 4601, 4682, 4681
1265, 1280, 1281, 1362, 1361, 4601, 4602, 4683, 4682
1266, 1281, 1282, 1363, 1362, 4602, 4603, 4684, 4683
1267, 1282, 1283, 1364, 1363, 4603, 4604, 4685, 4684
1268, 1283, 1284, 1365, 1364, 4604, 4605, 4686, 4685
1269, 1284, 1285, 1366, 1365, 4605, 4606, 4687, 4686
1270, 1285, 1286, 1367, 1366, 4606, 4607, 4688, 4687
1271, 1286, 1287, 1368, 1367, 4607, 4608, 4689, 4688
1272, 1287, 1288, 1369, 1368, 4608, 4609, 4690, 4689
1273, 1288, 1289, 1370, 1369, 4609, 4610, 4691, 4690
1274, 1289, 1290, 1371, 1370, 4610, 4611, 4692, 4691
1275, 1290, 1291, 1372, 1371, 4611, 4612, 4693, 4692
1276, 1291, 1292, 1373, 1372, 4612, 4613, 4694, 4693
1277, 1292, 1293, 1374, 1373, 4613, 4614, 4695, 4694
1278, 1293, 1294, 1375, 1374, 4614, 4615, 4696, 4695
1279, 1294, 1295, 1376, 1375, 4615, 4616, 4697, 4696
1280, 1295, 1296, 1377, 1376, 4616, 4617, 4698, 4697
1281, 1297, 1298, 1379, 1378, 4618, 4619, 4700, 4699
1282, 1298, 1299, 1380, 1379, 4619, 4620, 4701, 4700
1283, 1299, 1300, 1381, 1380, 4620, 4621, 4702, 4701
1284, 1300, 1301, 1382, 1381, 4621, 4622, 4703, 4702
1285, 1301, 1302, 1383, 1382, 4622, 4623, 4704, 4703
1286, 1302, 1303, 1384, 1383, 4623, 4624, 4705, 4704
1287, 1303, 1304, 1385, 1384, 4624, 4625, 4706, 4705
1288, 1304, 1305, 1386, 1385, 4625, 4626, 4707, 4706
1289, 1305, 1306, 1387, 1386, 4626, 4627, 4708, 4707
1290, 1306, 1307, 1388, 1387, 4627, 4628, 4709, 4708
1291, 1307, 1308, 1389, 1388, 4628, 4629, 4710, 4709
1292, 1308, 1309, 1390, 1389, 4629, 4630, 4711, 4710
1293, 1309, 1310, 1391, 1390, 4630, 4631, 4712, 4711
1294, 1310, 1311, 1392, 1391, 4631, 4632, 4713, 4712
1295, 1311, 1312, 1393, 1392, 4632, 4633, 4714, 4713
1296, 1312, 1313, 1394, 1393, 4633, 4634, 4715, 4714
1297, 1313, 1314, 1395, 1394, 4634, 4635, 4716, 4715
1298, 1314, 1315, 1396, 1395, 4635, 4636, 4717, 4716
1299, 1315, 1316, 1397, 1396, 4636, 4637, 4718, 4717
1300, 1316, 1317, 1398, 1397, 4637, 4638, 4719, 4718
1301, 1317, 1318, 1399, 1398, 4638, 4639, 4720, 4719
1302, 1318, 1319, 1400, 1399, 4639, 4640, 4721, 4720
1303, 1319, 1320, 1401, 1400, 4640, 4641, 4722, 4721
1304, 1320, 1321, 1402, 1401, 4641, 4642, 4723, 4722
1305, 1321, 1322, 1403, 1402, 4642, 4643, 4724, 4723
1306, 1322, 1323, 1404, 1403, 4643, 4644, 4725, 4724
1307, 1323, 1324, 1405, 1404, 4644, 4645, 4726, 4725
1308, 1324, 1325, 1406, 1405, 4645, 4646, 4727, 4726
1309, 1325, 1326, 1407, 1406, 4646, 4647, 4728, 4727
1310, 1326, 1327, 1408, 1407, 4647, 4648, 4729, 4728
1311, 1327, 1328, 1409, 1408, 4648, 4649, 4730, 4729
1312, 1328, 1329, 1410, 1409, 4649, 4650, 4731, 4730
1313, 1329, 1330, 1411, 1410, 4650, 4651, 4732, 4731
1314, 1330, 1331, 1412, 1411, 4651, 4652, 4733, 4732
1315, 1331, 1332, 1413, 1412, 4652, 4653, 4734, 4733
1316, 1332, 1333, 1414, 1413, 4653, 4654, 4735, 4734
1317, 1333, 1334, 1415, 1414, 4654, 4655, 4736, 4735
1318, 1334, 1335, 1416, 1415, 4655, 4656, 4737, 4736
1319, 1339, 1340, 1421, 1420, 4660, 4661, 4742, 4741
1320, 1340, 1341, 1422, 1421, 4661, 4662, 4743, 4742
1321, 1341, 1342, 1423, 1422, 4662, 4663, 4744, 4743
1322, 1342, 1343, 1424, 1423, 4663, 4664, 4745, 4744
1323, 1343, 1344, 1425, 1424, 4664, 4665, 4746, 4745
1324, 1344, 1345, 1426, 1425, 4665, 4666, 4747, 4746
1325, 1345, 1346, 1427, 1426, 4666, 4667, 4748, 4747
1326, 1346, 1347, 1428, 1427, 4667, 4668, 4749, 4748
1327, 1347, 1348, 1429, 1428, 4668, 4669, 4750, 4749
1328, 1348, 1349, 1430, 1429, 4669, 4670, 4751, 4750
1329, 1349, 1350, 1431, 1430, 4670, 4671, 4752, 4751
1330, 1350, 1351, 1432, 1431, 4671, 4672, 4753, 4752
1331, 1351, 1352, 1433, 1432, 4672, 4673, 4754, 4753
1332, 1352, 1353, 1434, 1433, 4673, 4674, 4755, 4754
1333, 1353, 1354, 1435, 1434, 4674, 4675, 4756, 4755
1334, 1354, 1355, 1436, 1435, 4675, 4676, 4757, 4756
1335, 1355, 1356, 1437, 1436, 4676, 4677, 4758, 4757
1336, 1356, 1357, 1438, 1437, 4677, 4678, 4759, 4758
1337, 1357, 1358, 1439, 1438, 4678, 4679, 4760, 4759
1338, 1358, 1359, 1440, 1439, 4679, 4680, 4761, 4760
1339, 1359, 1360, 1441, 1440, 4680, 4681, 4762, 4761
1340, 1360, 1361, 1442, 1441, 4681, 4682, 4763, 4762
1341, 1361, 1362, 1443, 1442, 4682, 4683, 4764, 4763
1342, 1362, 1363, 1444, 1443, 4683, 4684, 4765, 4764
1343, 1363, 1364, 1445, 1444, 4684, 4685, 4766, 4765
1344, 1364, 1365, 1446, 1445, 4685, 4686, 4767, 4766
1345, 1365, 1366, 1447, 1446, 4686, 4687, 4768, 4767
1346, 1366, 1367, 1448, 1447, 4687, 4688, 4769, 4768
1347, 1367, 1368, 1449, 1448, 4688, 4689, 4770, 4769
1348, 1368, 1369, 1450, 1449, 4689, 4690, 4771, 4770
1349, 1369, 1370, 1451, 1450, 4690, 4691, 4772, 4771
1350, 1370, 1371, 1452, 1451, 4691, 4692, 4773, 4772
1351, 1371, 1372, 1453, 1452, 4692, 4693, 4774, 4773
1352, 1372, 1373, 1454, 1453, 4693, 4694, 4775, 4774
1353, 1373, 1374, 1455, 1454, 4694, 4695, 4776, 4775
1354, 1374, 1375, 1456, 1455, 4695, 4696, 4777, 4776
1355, 1375, 1376, 1457, 1456, 4696, 4697, 4778, 4777
1356, 1376, 1377, 1458, 1457, 4697, 4698, 4779, 4778
1357, 1378, 1379, 1460, 1459, 4699, 4700, 4781, 4780
1358, 1379, 1380, 1461, 1460, 4700, 4701, 4782, 4781
1359, 1380, 1381, 1462, 1461, 4701, 4702, 4783, 4782
1360, 1381, 1382, 1463, 1462, 4702, 4703, 4784, 4783
1361, 1382, 1383, 1464, 1463, 4703, 4704, 4785, 4784
1362, 1383, 1384, 1465, 1464, 4704, 4705, 4786, 4785
1363, 1384, 1385, 1466, 1465, 4705, 4706, 4787, 4786
1364, 1385, 1386, 1467, 1466, 4706, 4707, 4788, 4787
1365, 1386, 1387, 1468, 1467, 4707, 4708, 4789, 4788
1366, 1387, 1388, 1469, 1468, 4708, 4709, 4790, 4789
1367, 1388, 1389, 1470, 1469, 4709, 4710, 4791, 4790
1368, 1389, 1390, 1471, 1470, 4710, 4711, 4792, 4791
1369, 1390, 1391, 1472, 1471, 4711, 4712, 4793, 4792
1370, 1391, 1392, 1473, 1472, 4712, 4713, 4794, 4793
1371, 1392, 1393, 1474, 1473, 4713, 4714, 4795, 4794
1372, 1393, 1394, 1475, 1474, 4714, 4715, 4796, 4795
1373, 1394, 1395, 1476, 1475, 4715, 4716, 4797, 4796
1374, 1395, 1396, 1477, 1476, 4716, 4717, 4798, 4797
1375, 1396, 1397, 1478, 1477, 4717, 4718, 4799, 4798
1376, 1397, 1398, 1479, 1478, 4718, 4719, 4800, 4799
1377, 1398, 1399, 1480, 1479, 4719, 4720, 4801, 4800
1378, 1399, 1400, 1481, 1480, 4720, 4721, 4802, 4801
1379, 1400, 1401, 1482, 1481, 4721, 4722, 4803, 4802
1380, 1401, 1402, 1483, 1482, 4722, 4723, 4804, 4803
1381, 1402, 1403, 1484, 1483, 4723, 4724, 4805, 4804
1382, 1403, 1404, 1485, 1484, 4724, 4725, 4806, 4805
1383, 1404, 1405, 1486, 1485, 4725, 4726, 4807, 4806
1384, 1405, 1406, 1487, 1486, 4726, 4727, 4808, 4807
1385, 1406, 1407, 1488, 1487, 4727, 4728, 4809, 4808
1386, 1407, 1408, 1489, 1488, 4728, 4729, 4810, 4809
1387, 1408, 1409, 1490, 1489, 4729, 4730, 4811, 4810
1388, 1409, 1410, 1491, 1490, 4730, 4731, 4812, 4811
1389, 1410, 1411, 1492, 1491, 4731, 4732, 4813, 4812
1390, 1411, 1412, 1493, 1492, 4732, 4733, 4814, 4813
1391, 1412, 1413, 1494, 1493, 4733, 4734, 4815, 4814
1392, 1413, 1414, 1495, 1494, 4734, 4735, 4816, 4815
1393, 1414, 1415, 1496, 1495, 4735, 4736, 4817, 4816
1394, 1421, 1422, 1503, 1502, 4742, 4743, 4824, 4823
1395, 1422, 1423, 1504, 1503, 4743, 4744, 4825, 4824
1396, 1423, 1424, 1505, 1504, 4744, 4745, 4826, 4825
1397, 1424, 1425, 1506, 1505, 4745, 4746, 4827, 4826
1398, 1425, 1426, 1507, 1506, 4746, 4747, 4828, 4827
1399, 1426, 1427, 1508, 1507, 4747, 4748, 4829, 4828
1400, 1427, 1428, 1509, 1508, 4748, 4749, 4830, 4829
1401, 1428, 1429, 1510, 1509, 4749, 4750, 4831, 4830
1402, 1429, 1430, 1511, 1510, 4750, 4751, 4832, 4831
1403, 1430, 1431, 1512, 1511, 4751, 4752, 4833, 4832
1404, 1431, 1432, 1513, 1512, 4752, 4753, 4834, 4833
1405, 1432, 1433, 1514, 1513, 4753, 4754, 4835, 4834
1406, 1433, 1434, 1515, 1514, 4754, 4755, 4836, 4835
1407, 1434, 1435, 1516, 1515, 4755, 4756, 4837, 4836
1408, 1435, 1436, 1517, 1516, 4756, 4757, 4838, 4837
1409, 1436, 1437, 1518, 1517, 4757, 4758, 4839, 4838
1410, 1437, 1438, 1519, 1518, 4758, 4759, 4840, 4839
1411, 1438, 1439, 1520, 1519, 4759, 4760, 4841, 4840
1412, 1439, 1440, 1521, 1520, 4760, 4761, 4842, 4841
1413, 1440, 1441, 1522, 1521, 4761, 4762, 4843, 4842
1414, 1441, 1442, 1523, 1522, 4762, 4763, 4844, 4843
1415, 1442, 1443, 1524, 1523, 4763, 4764, 4845, 4844
1416, 1443, 1444, 1525, 1524, 4764, 4765, 4846, 4845
1417, 1444, 1445, 1526, 1525, 4765, 4766, 4847, 4846
1418, 1445, 1446, 1527, 1526, 4766, 4767, 4848, 4847
1419, 1446, 1447, 1528, 1527, 4767, 4768, 4849, 4848
1420, 1447, 1448, 1529, 1528, 4768, 4769, 4850, 4849
1421, 1448, 1449, 1530, 1529, 4769, 4770, 4851, 4850
1422, 1449, 1450, 1531, 1530, 4770, 4771, 4852, 4851
1423, 1450, 1451, 1532, 1531, 4771, 4772, 4853, 4852
1424, 1451, 1452, 1533, 1532, 4772, 4773, 4854, 4853
1425, 1452, 1453, 1534, 1533, 4773, 4774, 4855, 4854
1426, 1453, 1454, 1535, 1534, 4774, 4775, 4856, 4855
1427, 1454, 1455, 1536, 1535, 4775, 4776, 4857, 4856
1428, 1455, 1456, 1537, 1536, 4776, 4777, 4858, 4857
1429, 1456, 1457, 1538, 1537, 4777, 4778, 4859, 4858
1430, 1457, 1458, 1539, 1538, 4778, 4779, 4860, 4859
1431, 1459, 1460, 1541, 1540, 4780, 4781, 4862, 4861
1432, 1460, 1461, 1542, 1541, 4781, 4782, 4863, 4862
1433, 1461, 1462, 1543, 1542, 4782, 4783, 4864, 4863
1434, 1462, 1463, 1544, 1543, 4783, 4784, 4865, 4864
1435, 1463, 1464, 1545, 1544, 4784, 4785, 4866, 4865
1436, 1464, 1465, 1546, 1545, 4785, 4786, 4867, 4866
1437, 1465, 1466, 1547, 1546, 4786, 4787, 4868, 4867
1438, 1466, 1467, 1548, 1547, 4787, 4788, 4869, 4868
1439, 1467, 1468, 1549, 1548, 4788, 4789, 4870, 4869
1440, 1468, 1469, 1550, 1549, 4789, 4790, 4871, 4870
1441, 1469, 1470, 1551, 1550, 4790, 4791, 4872, 4871
1442, 1470, 1471, 1552, 1551, 4791, 4792, 4873, 4872
1443, 1471, 1472, 1553, 1552, 4792, 4793, 4874, 4873
1444, 1472, 1473, 1554, 1553, 4793, 4794, 4875, 4874
1445, 1473, 1474, 1555, 1554, 4794, 4795, 4876, 4875
1446, 1474, 1475, 1556, 1555, 4795, 4796, 4877, 4876
1447, 1475, 1476, 1557, 1556, 4796, 4797, 4878, 4877
1448, 1476, 1477, 1558, 1557, 4797, 4798, 4879, 4878
1449, 1477, 1478, 1559, 1558, 4798, 4799, 4880, 4879
1450, 1478, 1479, 1560, 1559, 4799, 4800, 4881, 4880
1451, 1479, 1480, 1561, 1560, 4800, 4801, 4882, 4881
1452, 1480, 1481, 1562, 1561, 4801, 4802, 4883, 4882
1453, 1481, 1482, 1563, 1562, 4802, 4803, 4884, 4883
1454, 1482, 1483, 1564, 1563, 4803, 4804, 4885, 4884
1455, 1483, 1484, 1565, 1564, 4804, 4805, 4886, 4885
1456, 1484, 1485, 1566, 1565, 4805, 4806, 4887, 4886
1457, 1485, 1486, 1567, 1566, 4806, 4807, 4888, 4887
1458, 1486, 1487, 1568, 1567, 4807, 4808, 4889, 4888
1459, 1487, 1488, 1569, 1568, 4808, 4809, 4890, 4889
1460, 1488, 1489, 1570, 1569, 4809, 4810, 4891, 4890
1461, 1489, 1490, 1571, 1570, 4810, 4811, 4892, 4891
1462, 1490, 1491, 1572, 1571, 4811, 4812, 4893, 4892
1463, 1491, 1492, 1573, 1572, 4812, 4813, 4894, 4893
1464, 1492, 1493, 1574, 1573, 4813, 4814, 4895, 4894
1465, 1493, 1494, 1575, 1574, 4814, 4815, 4896, 4895
1466, 1494, 1495, 1576, 1575, 4815, 4816, 4897, 4896
1467, 1503, 1504, 1585, 1584, 4824, 4825, 4906, 4905
1468, 1504, 1505, 1586, 1585, 4825, 4826, 4907, 4906
1469, 1505, 1506, 1587, 1586, 4826, 4827, 4908, 4907
1470, 1506, 1507, 1588, 1587, 4827, 4828, 4909, 4908
1471, 1507, 1508, 1589, 1588, 4828, 4829, 4910, 4909
1472, 1508, 1509, 1590, 1589, 4829, 4830, 4911, 4910
1473, 1509, 1510, 1591, 1590, 4830, 4831, 4912, 4911
1474, 1510, 1511, 1592, 1591, 4831, 4832, 4913, 4912
1475, 1511, 1512, 1593, 1592, 4832, 4833, 4914, 4913
1476, 1512, 1513, 1594, 1593, 4833, 4834, 4915, 4914
1477, 1513, 1514, 1595, 1594, 4834, 4835, 4916, 4915
1478, 1514, 1515, 1596, 1595, 4835, 4836, 4917, 4916
1479, 1515, 1516, 1597, 1596, 4836, 4837, 4918, 4917
1480, 1516, 1517, 1598, 1597, 4837, 4838, 4919, 4918
1481, 1517, 1518, 1599, 1598, 4838, 4839, 4920, 4919
1482, 1518, 1519, 1600, 1599, 4839, 4840, 4921, 4920
1483, 1519, 1520, 1601, 1600, 4840, 4841, 4922, 4921
1484, 1520, 1521, 1602, 1601, 4841, 4842, 4923, 4922
1485, 1521, 1522, 1603, 1602, 4842, 4843, 4924, 4923
1486, 1522, 1523, 1604, 1603, 4843, 4844, 4925, 4924
1487, 1523, 1524, 1605, 1604, 4844, 4845, 4926, 4925
1488, 1524, 1525, 1606, 1605, 4845, 4846, 4927, 4926
1489, 1525, 1526, 1607, 1606, 4846, 4847, 4928, 4927
1490, 1526, 1527, 1608, 1607, 4847, 4848, 4929, 4928
1491, 1527, 1528, 1609, 1608, 4848, 4849, 4930, 4929
1492, 1528, 1529, 1610, 1609, 4849, 4850, 4931, 4930
1493, 1529, 1530, 1611, 1610, 4850, 4851, 4932, 4931
1494, 1530, 1531, 1612, 1611, 4851, 4852, 4933, 4932
1495, 1531, 1532, 1613, 1612, 4852, 4853, 4934, 4933
1496, 1532, 1533, 1614, 1613, 4853, 4854, 4935, 4934
1497, 1533, 1534, 1615, 1614, 4854, 4855, 4936, 4935
1498, 1534, 1535, 1616, 1615, 4855, 4856, 4937, 4936
1499, 1535, 1536, 1617, 1616, 4856, 4857, 4938, 4937
1500, 1536, 1537, 1618, 1617, 4857, 4858, 4939, 4938
1501, 1537, 1538, 1619, 1618, 4858, 4859, 4940, 4939
1502, 1538, 1539, 1620, 1619, 4859, 4860, 4941, 4940
1503, 1540, 1541, 1622, 1621, 4861, 4862, 4943, 4942
1504, 1541, 1542, 1623, 1622, 4862, 4863, 4944, 4943
1505, 1542, 1543, 1624, 1623, 4863, 4864, 4945, 4944
1506, 1543, 1544, 1625, 1624, 4864, 4865, 4946, 4945
1507, 1544, 1545, 1626, 1625, 4865, 4866, 4947, 4946
1508, 1545, 1546, 1627, 1626, 4866, 4867, 4948, 4947
1509, 1546, 1547, 1628, 1627, 4867, 4868, 4949, 4948
1510, 1547, 1548, 1629, 1628, 4868, 4869, 4950, 4949
1511, 1548, 1549, 1630, 1629, 4869, 4870, 4951, 4950
1512, 1549, 1550, 1631, 1630, 4870, 4871, 4952, 4951
1513, 1550, 1551, 1632, 1631, 4871, 4872, 4953, 4952
1514, 1551, 1552, 1633, 1632, 4872, 4873, 4954, 4953
1515, 1552, 1553, 1634, 1633, 4873, 4874, 4955, 4954
1516, 1553, 1554, 1635, 1634, 4874, 4875, 4956, 4955
1517, 1554, 1555, 1636, 1635, 4875, 4876, 4957, 4956
1518, 1555, 1556, 1637, 1636, 4876, 4877, 4958, 4957
1519, 1556, 1557, 1638, 1637, 4877, 4878, 4959, 4958
1520, 1557, 1558, 1639, 1638, 4878, 4879, 4960, 4959
1521, 1558, 1559, 1640, 1639, 4879, 4880, 4961, 4960
1522, 1559, 1560, 1641, 1640, 4880, 4881, 4962, 4961
1523, 1560, 1561, 1642, 1641, 4881, 4882, 4963, 4962
1524, 1561, 1562, 1643, 1642, 4882, 4883, 4964, 4963
1525, 1562, 1563, 1644, 1643, 4883, 4884, 4965, 4964
1526, 1563, 1564, 1645, 1644, 4884, 4885, 4966, 4965
1527, 1564, 1565, 1646, 1645, 4885, 4886, 4967, 4966
1528, 1565, 1566, 1647, 1646, 4886, 4887, 4968, 4967
1529, 1566, 1567, 1648, 1647, 4887, 4888, 4969, 4968
1530, 1567, 1568, 1649, 1648, 4888, 4889, 4970, 4969
1531, 1568, 1569, 1650, 1649, 4889, 4890, 4971, 4970
1532, 1569, 1570, 1651, 1650, 4890, 4891, 4972, 4971
1533, 1570, 1571, 1652, 1651, 4891, 4892, 4973, 4972
1534, 1571, 1572, 1653, 1652, 4892, 4893, 4974, 4973
1535, 1572, 1573, 1654, 1653, 4893, 4894, 4975, 4974
1536, 1573, 1574, 1655, 1654, 4894, 4895, 4976, 4975
1537, 1574, 1575, 1656, 1655, 4895, 4896, 4977, 4976
1538, 1575, 1576, 1657, 1656, 4896, 4897, 4978, 4977
1539, 1584, 1585, 1666, 1665, 4905, 4906, 4987, 4986
1540, 1585, 1586, 1667, 1666, 4906, 4907, 4988, 4987
1541, 1586, 1587, 1668, 1667, 4907, 4908, 4989, 4988
1542, 1587, 1588, 1669, 1668, 4908, 4909, 4990, 4989
1543, 1588, 1589, 1670, 1669, 4909, 4910, 4991, 4990
1544, 1589, 1590, 1671, 1670, 4910, 4911, 4992, 4991
1545, 1590, 1591, 1672, 1671, 4911, 4912, 4993, 4992
1546, 1591, 1592, 1673, 1672, 4912, 4913, 4994, 4993
1547, 1592, 1593, 1674, 1673, 4913, 4914, 4995, 4994
1548, 1593, 1594, 1675, 1674, 4914, 4915, 4996, 4995
1549, 1594, 1595, 1676, 1675, 4915, 4916, 4997, 4996
1550, 1595, 1596, 1677, 1676, 4916, 4917, 4998, 4997
1551, 1596, 1597, 1678, 1677, 4917, 4918, 4999, 4998
1552, 1597, 1598, 1679, 1678, 4918, 4919, 5000, 4999
1553, 1598, 1599, 1680, 1679, 4919, 4920, 5001, 5000
1554, 1599, 1600, 1681, 1680, 4920, 4921, 5002, 5001
1555, 1600, 1601, 1682, 1681, 4921, 4922, 5003, 5002
1556, 1601, 1602, 1683, 1682, 4922, 4923, 5004, 5003
1557, 1602, 1603, 1684, 1683, 4923, 4924, 5005, 5004
1558, 1603, 1604, 1685, 1684, 4924, 4925, 5006, 5005
1559, 1604, 1605, 1686, 1685, 4925, 4926, 5007, 5006
1560, 1605, 1606, 1687, 1686, 4926, 4927, 5008, 5007
1561, 1606, 1607, 1688, 1687, 4927, 4928, 5009, 5008
1562, 1607, 1608, 1689, 1688, 4928, 4929, 5010, 5009
1563, 1608, 1609, 1690, 1689, 4929, 4930, 5011, 5010
1564, 1609, 1610, 1691, 1690, 4930, 4931, 5012, 5011
1565, 1610, 1611, 1692, 1691, 4931, 4932, 5013, 5012
1566, 1611, 1612, 1693, 1692, 4932, 4933, 5014, 5013
1567, 1612, 1613, 1694, 1693, 4933, 4934, 5015, 5014
1568, 1613, 1614, 1695, 1694, 4934, 4935, 5016, 5015
1569, 1614, 1615, 1696, 1695, 4935, 4936, 5017, 5016
1570, 1615, 1616, 1697, 1696, 4936, 4937, 5018, 5017
1571, 1616, 1617, 1698, 1697, 4937, 4938, 5019, 5018
1572, 1617, 1618, 1699, 1698, 4938, 4939, 5020, 5019
1573, 1618, 1619, 1700, 1699, 4939, 4940, 5021, 5020
1574, 1619, 1620, 1701, 1700, 4940, 4941, 5022, 5021
1575, 1621, 1622, 1703, 1702, 4942, 4943, 5024, 5023
1576, 1622, 1623, 1704, 1703, 4943, 4944, 5025, 5024
1577, 1623, 1624, 1705, 1704, 4944, 4945, 5026, 5025
1578, 1624, 1625, 1706, 1705, 4945, 4946, 5027, 5026
1579, 1625, 1626, 1707, 1706, 4946, 4947, 5028, 5027
1580, 1626, 1627, 1708, 1707, 4947, 4948, 5029, 5028
1581, 1627, 1628, 1709, 1708, 4948, 4949, 5030, 5029
1582, 1628, 1629, 1710, 1709, 4949, 4950, 5031, 5030
1583, 1629, 1630, 1711, 1710, 4950, 4951, 5032, 5031
1584, 1630, 1631, 1712, 1711, 4951, 4952, 5033, 5032
1585, 1631, 1632, 1713, 1712, 4952, 4953, 5034, 5033
1586, 1632, 1633, 1714, 1713, 4953, 4954, 5035, 5034
1587, 1633, 1634, 1715, 1714, 4954, 4955, 5036, 5035
1588, 1634, 1635, 1716, 1715, 4955, 4956, 5037, 5036
1589, 1635, 1636, 1717, 1716, 4956, 4957, 5038, 5037
1590, 1636, 1637, 1718, 1717, 4957, 4958, 5039, 5038
1591, 1637, 1638, 1719, 1718, 4958, 4959, 5040, 5039
1592, 1638, 1639, 1720, 1719, 4959, 4960, 5041, 5040
1593, 1639, 1640, 1721, 1720, 4960, 4961, 5042, 5041
1594, 1640, 1641, 1722, 1721, 4961, 4962, 5043, 5042
1595, 1641, 1642, 1723, 1722, 4962, 4963, 5044, 5043
1596, 1642, 1643, 1724, 1723, 4963, 4964, 5045, 5044
1597, 1643, 1644, 1725, 1724, 4964, 4965, 5046, 5045
1598, 1644, 1645, 1726, 1725, 4965, 4966, 5047, 5046
1599, 1645, 1646, 1727, 1726, 4966, 4967, 5048, 5047
1600, 1646, 1647, 1728, 1727, 4967, 4968, 5049, 5048
1601, 1647, 1648, 1729, 1728, 4968, 4969, 5050, 5049
1602, 1648, 1649, 1730, 1729, 4969, 4970, 5051, 5050
1603, 1649, 1650, 1731, 1730, 4970, 4971, 5052, 5051
1604, 1650, 1651, 1732, 1731, 4971, 4972, 5053, 5052
1605, 1651, 1652, 1733, 1732, 4972, 4973, 5054, 5053
1606, 1652, 1653, 1734, 1733, 4973, 4974, 5055, 5054
1607, 1653, 1654, 1735, 1734, 4974, 4975, 5056, 5055
1608, 1654, 1655, 1736, 1735, 4975, 4976, 5057, 5056
1609, 1655, 1656, 1737, 1736, 4976, 4977, 5058, 5057
1610, 1656, 1657, 1738, 1737, 4977, 4978, 5059, 5058
1611, 1665, 1666, 1747, 1746, 4986, 4987, 5068, 5067
1612, 1666, 1667, 1748, 1747, 4987, 4988, 5069, 5068
1613, 1667, 1668, 1749, 1748, 4988, 4989, 5070, 5069
1614, 1668, 1669, 1750, 1749, 4989, 4990, 5071, 5070
1615, 1669, 1670, 1751, 1750, 4990, 4991, 5072, 5071
1616, 1670, 1671, 1752, 1751, 4991, 4992, 5073, 5072
1617, 1671, 1672, 1753, 1752, 4992, 4993, 5074, 5073
1618, 1672, 1673, 1754, 1753, 4993, 4994, 5075, 5074
1619, 1673, 1674, 1755, 1754, 4994, 4995, 5076, 5075
1620, 1674, 1675, 1756, 1755, 4995, 4996, 5077, 5076
1621, 1675, 1676, 1757, 1756, 4996, 4997, 5078, 5077
1622, 1676, 1677, 1758, 1757, 4997, 4998, 5079, 5078
1623, 1677, 1678, 1759, 1758, 4998, 4999, 5080, 5079
1624, 1678, 1679, 1760, 1759, 4999, 5000, 5081, 5080
1625, 1679, 1680, 1761, 1760, 5000, 5001, 5082, 5081
1626, 1680, 1681, 1762, 1761, 5001, 5002, 5083, 5082
1627, 1681, 1682, 1763, 1762, 5002, 5003, 5084, 5083
1628, 1682, 1683, 1764, 1763, 5003, 5004, 5085, 5084
1629, 1683, 1684, 1765, 1764, 5004, 5005, 5086, 5085
1630, 1684, 1685, 1766, 1765, 5005, 5006, 5087, 5086
1631, 1685, 1686, 1767, 1766, 5006, 5007, 5088, 5087
1632, 1686, 1687, 1768, 1767, 5007, 5008, 5089, 5088
1633, 1687, 1688, 1769, 1768, 5008, 5009, 5090, 5089
1634, 1688, 1689, 1770, 1769, 5009, 5010, 5091, 5090
1635, 1689, 1690, 1771, 1770, 5010, 5011, 5092, 5091
1636, 1690, 1691, 1772, 1771, 5011, 5012, 5093, 5092
1637, 1691, 1692, 1773, 1772, 5012, 5013, 5094, 5093
1638, 1692, 1693, 1774, 1773, 5013, 5014, 5095, 5094
1639, 1693, 1694, 1775, 1774, 5014, 5015, 5096, 5095
1640, 1694, 1695, 1776, 1775, 5015, 5016, 5097, 5096
1641, 1695, 1696, 1777, 1776, 5016, 5017, 5098, 5097
1642, 1696, 1697, 1778, 1777, 5017, 5018, 5099, 5098
1643, 1697, 1698, 1779, 1778, 5018, 5019, 5100, 5099
1644, 1698, 1699, 1780, 1779, 5019, 5020, 5101, 5100
1645, 1699, 1700, 1781, 1780, 5020, 5021, 5102, 5101
1646, 1700, 1701, 1782, 1781, 5021, 5022, 5103, 5102
1647, 1702, 1703, 1784, 1783, 5023, 5024, 5105, 5104
1648, 1703, 1704, 1785, 1784, 5024, 5025, 5106, 5105
1649, 1704, 1705, 1786, 1785, 5025, 5026, 5107, 5106
1650, 1705, 1706, 1787, 1786, 5026, 5027, 5108, 5107
1651, 1706, 1707, 1788, 1787, 5027, 5028, 5109, 5108
1652, 1707, 1708, 1789, 1788, 5028, 5029, 5110, 5109
1653, 1708, 1709, 1790, 1789, 5029, 5030, 5111, 5110
1654, 1709, 1710, 1791, 1790, 5030, 5031, 5112, 5111
1655, 1710, 1711, 1792, 1791, 5031, 5032, 5113, 5112
1656, 1711, 1712, 1793, 1792, 5032, 5033, 5114, 5113
1657, 1712, 1713, 1794, 1793, 5033, 5034, 5115, 5114
1658, 1713, 1714, 1795, 1794, 5034, 5035, 5116, 5115
1659, 1714, 1715, 1796, 1795, 5035, 5036, 5117, 5116
1660, 1715, 1716, 1797, 1796, 5036, 5037, 5118, 5117
1661, 1716, 1717, 1798, 1797, 5037, 5038, 5119, 5118
1662, 1717, 1718, 1799, 1798, 5038, 5039, 5120, 5119
1663, 1718, 1719, 1800, 1799, 5039, 5040, 5121, 5120
1664, 1719, 1720, 1801, 1800, 5040, 5041, 5122, 5121
1665, 1720, 1721, 1802, 1801, 5041, 5042, 5123, 5122
1666, 1721, 1722, 1803, 1802, 5042, 5043, 5124, 5123
1667, 1722, 1723, 1804, 1803, 5043, 5044, 5125, 5124
1668, 1723, 1724, 1805, 1804, 5044, 5045, 5126, 5125
1669, 1724, 1725, 1806, 1805, 5045, 5046, 5127, 5126
1670, 1725, 1726, 1807, 1806, 5046, 5047, 5128, 5127
1671, 1726, 1727, 1808, 1807, 5047, 5048, 5129, 5128
1672, 1727, 1728, 1809, 1808, 5048, 5049, 5130, 5129
1673, 1728, 1729, 1810, 1809, 5049, 5050, 5131, 5130
1674, 1729, 1730, 1811, 1810, 5050, 5051, 5132, 5131
1675, 1730, 1731, 1812, 1811, 5051, 5052, 5133, 5132
1676, 1731, 1732, 1813, 1812, 5052, 5053, 5134, 5133
1677, 1732, 1733, 1814, 1813, 5053, 5054, 5135, 5134
1678, 1733, 1734, 1815, 1814, 5054, 5055, 5136, 5135
1679, 1734, 1735, 1816, 1815, 5055, 5056, 5137, 5136
1680, 1735, 1736, 1817, 1816, 5056, 5057, 5138, 5137
1681, 1736, 1737, 1818, 1817, 5057, 5058, 5139, 5138
1682, 1737, 1738, 1819, 1818, 5058, 5059, 5140, 5139
1683, 1746, 1747, 1828, 1827, 5067, 5068, 5149, 5148
1684, 1747, 1748, 1829, 1828, 5068, 5069, 5150, 5149
1685, 1748, 1749, 1830, 1829, 5069, 5070, 5151, 5150
1686, 1749, 1750, 1831, 1830, 5070, 5071, 5152, 5151
1687, 1750, 1751, 1832, 1831, 5071, 5072, 5153, 5152
1688, 1751, 1752, 1833, 1832, 5072, 5073, 5154, 5153
1689, 1752, 1753, 1834, 1833, 5073, 5074, 5155, 5154
1690, 1753, 1754, 1835, 1834, 5074, 5075, 5156, 5155
1691, 1754, 1755, 1836, 1835, 5075, 5076, 5157, 5156
1692, 1755, 1756, 1837, 1836, 5076, 5077, 5158, 5157
1693, 1756, 1757, 1838, 1837, 5077, 5078, 5159, 5158
1694, 1757, 1758, 1839, 1838, 5078, 5079, 5160, 5159
1695, 1758, 1759, 1840, 1839, 5079, 5080, 5161, 5160
1696, 1759, 1760, 1841, 1840, 5080, 5081, 5162, 5161
1697, 1760, 1761, 1842, 1841, 5081, 5082, 5163, 5162
1698, 1761, 1762, 1843, 1842, 5082, 5083, 5164, 5163
1699, 1762, 1763, 1844, 1843, 5083, 5084, 5165, 5164
1700, 1763, 1764, 1845, 1844, 5084, 5085, 5166, 5165
1701, 1764, 1765, 1846, 1845, 5085, 5086, 5167, 5166
1702, 1765, 1766, 1847, 1846, 5086, 5087, 5168, 5167
1703, 1766, 1767, 1848, 1847, 5087, 5088, 5169, 5168
1704, 1767, 1768, 1849, 1848, 5088, 5089, 5170, 5169
1705, 1768, 1769, 1850, 1849, 5089, 5090, 5171, 5170
1706, 1769, 1770, 1851, 1850, 5090, 5091, 5172, 5171
1707, 1770, 1771, 1852, 1851, 5091, 5092, 5173, 5172
1708, 1771, 1772, 1853, 1852, 5092, 5093, 5174, 5173
1709, 1772, 1773, 1854, 1853, 5093, 5094, 5175, 5174
1710, 1773, 1774, 1855, 1854, 5094, 5095, 5176, 5175
1711, 1774, 1775, 1856, 1855, 5095, 5096, 5177, 5176
1712, 1775, 1776, 1857, 1856, 5096, 5097, 5178, 5177
1713, 1776, 1777, 1858, 1857, 5097, 5098, 5179, 5178
1714, 1777, 1778, 1859, 1858, 5098, 5099, 5180, 5179
1715, 1778, 1779, 1860, 1859, 5099, 5100, 5181, 5180
1716, 1779, 1780, 1861, 1860, 5100, 5101, 5182, 5181
1717, 1780, 1781, 1862, 1861, 5101, 5102, 5183, 5182
1718, 1781, 1782, 1863, 1862, 5102, 5103, 5184, 5183
1719, 1783, 1784, 1865, 1864, 5104, 5105, 5186, 5185
1720, 1784, 1785, 1866, 1865, 5105, 5106, 5187, 5186
1721, 1785, 1786, 1867, 1866, 5106, 5107, 5188, 5187
1722, 1786, 1787, 1868, 1867, 5107, 5108, 5189, 5188
1723, 1787, 1788, 1869, 1868, 5108, 5109, 5190, 5189
1724, 1788, 1789, 1870, 1869, 5109, 5110, 5191, 5190
1725, 1789, 1790, 1871, 1870, 5110, 5111, 5192, 5191
1726, 1790, 1791, 1872, 1871, 5111, 5112, 5193, 5192
1727, 1791, 1792, 1873, 1872, 5112, 5113, 5194, 5193
1728, 1792, 1793, 1874, 1873, 5113, 5114, 5195, 5194
1729, 1793, 1794, 1875, 1874, 5114, 5115, 5196, 5195
1730, 1794, 1795, 1876, 1875, 5115, 5116, 5197, 5196
1731, 1795, 1796, 1877, 1876, 5116, 5117, 5198, 5197
1732, 1796, 1797, 1878, 1877, 5117, 5118, 5199, 5198
1733, 1797, 1798, 1879, 1878, 5118, 5119, 5200, 5199
1734, 1798, 1799, 1880, 1879, 5119, 5120, 5201, 5200
1735, 1799, 1800, 1881, 1880, 5120, 5121, 5202, 5201
1736, 1800, 1801, 1882, 1881, 5121, 5122, 5203, 5202
1737, 1801, 1802, 1883, 1882, 5122, 5123, 5204, 5203
1738, 1802, 1803, 1884, 1883, 5123, 5124, 5205, 5204
1739, 1803, 1804, 1885, 1884, 5124, 5125, 5206, 5205
1740, 1804, 1805, 1886, 1885, 5125, 5126, 5207, 5206
1741, 1805, 1806, 1887, 1886, 5126, 5127, 5208, 5207
1742, 1806, 1807, 1888, 1887, 5127, 5128, 5209, 5208
1743, 1807, 1808, 1889, 1888, 5128, 5129, 5210, 5209
1744, 1808, 1809, 1890, 1889, 5129, 5130, 5211, 5210
1745, 1809, 1810, 1891, 1890, 5130, 5131, 5212, 5211
1746, 1810, 1811, 1892, 1891, 5131, 5132, 5213, 5212
1747, 1811, 1812, 1893, 1892, 5132, 5133, 5214, 5213
1748, 1812, 1813, 1894, 1893, 5133, 5134, 5215, 5214
1749, 1813, 1814, 1895, 1894, 5134, 5135, 5216, 5215
1750, 1814, 1815, 1896, 1895, 5135, 5136, 5217, 5216
1751, 1815, 1816, 1897, 1896, 5136, 5137, 5218, 5217
1752, 1816, 1817, 1898, 1897, 5137, 5138, 5219, 5218
1753, 1817, 1818, 1899, 1898, 5138, 5139, 5220, 5219
1754, 1818, 1819, 1900, 1899, 5139, 5140, 5221, 5220
1755, 1819, 1820, 1901, 1900, 5140, 5141, 5222, 5221
1756, 1826, 1827, 1908, 1907, 5147, 5148, 5229, 5228
1757, 1827, 1828, 1909, 1908, 5148, 5149, 5230, 5229
1758, 1828, 1829, 1910, 1909, 5149, 5150, 5231, 5230
1759, 1829, 1830, 1911, 1910, 5150, 5151, 5232, 5231
1760, 1830, 1831, 1912, 1911, 5151, 5152, 5233, 5232
1761, 1831, 1832, 1913, 1912, 5152, 5153, 5234, 5233
1762, 1832, 1833, 1914, 1913, 5153, 5154, 5235, 5234
1763, 1833, 1834, 1915, 1914, 5154, 5155, 5236, 5235
1764, 1834, 1835, 1916, 1915, 5155, 5156, 5237, 5236
1765, 1835, 1836, 1917, 1916, 5156, 5157, 5238, 5237
1766, 1836, 1837, 1918, 1917, 5157, 5158, 5239, 5238
1767, 1837, 1838, 1919, 1918, 5158, 5159, 5240, 5239
1768, 1838, 1839, 1920, 1919, 5159, 5160, 5241, 5240
1769, 1839, 1840, 1921, 1920, 5160, 5161, 5242, 5241
1770, 1840, 1841, 1922, 1921, 5161, 5162, 5243, 5242
1771, 1841, 1842, 1923, 1922, 5162, 5163, 5244, 5243
1772, 1842, 1843, 1924, 1923, 5163, 5164, 5245, 5244
1773, 1843, 1844, 1925, 1924, 5164, 5165, 5246, 5245
1774, 1844, 1845, 1926, 1925, 5165, 5166, 5247, 5246
1775, 1845, 1846, 1927, 1926, 5166, 5167, 5248, 5247
1776, 1846, 1847, 1928, 1927, 5167, 5168, 5249, 5248
1777, 1847, 1848, 1929, 1928, 5168, 5169, 5250, 5249
1778, 1848, 1849, 1930, 1929, 5169, 5170, 5251, 5250
1779, 1849, 1850, 1931, 1930, 5170, 5171, 5252, 5251
1780, 1850, 1851, 1932, 1931, 5171, 5172, 5253, 5252
1781, 1851, 1852, 1933, 1932, 5172, 5173, 5254, 5253
1782, 1852, 1853, 1934, 1933, 5173, 5174, 5255, 5254
1783, 1853, 1854, 1935, 1934, 5174, 5175, 5256, 5255
1784, 1854, 1855, 1936, 1935, 5175, 5176, 5257, 5256
1785, 1855, 1856, 1937, 1936, 5176, 5177, 5258, 5257
1786, 1856, 1857, 1938, 1937, 5177, 5178, 5259, 5258
1787, 1857, 1858, 1939, 1938, 5178, 5179, 5260, 5259
1788, 1858, 1859, 1940, 1939, 5179, 5180, 5261, 5260
1789, 1859, 1860, 1941, 1940, 5180, 5181, 5262, 5261
1790, 1860, 1861, 1942, 1941, 5181, 5182, 5263, 5262
1791, 1861, 1862, 1943, 1942, 5182, 5183, 5264, 5263
1792, 1862, 1863, 1944, 1943, 5183, 5184, 5265, 5264
1793, 1864, 1865, 1946, 1945, 5185, 5186, 5267, 5266
1794, 1865, 1866, 1947, 1946, 5186, 5187, 5268, 5267
1795, 1866, 1867, 1948, 1947, 5187, 5188, 5269, 5268
1796, 1867, 1868, 1949, 1948, 5188, 5189, 5270, 5269
1797, 1868, 1869, 1950, 1949, 5189, 5190, 5271, 5270
1798, 1869, 1870, 1951, 1950, 5190, 5191, 5272, 5271
1799, 1870, 1871, 1952, 1951, 5191, 5192, 5273, 5272
1800, 1871, 1872, 1953, 1952, 5192, 5193, 5274, 5273
1801, 1872, 1873, 1954, 1953, 5193, 5194, 5275, 5274
1802, 1873, 1874, 1955, 1954, 5194, 5195, 5276, 5275
1803, 1874, 1875, 1956, 1955, 5195, 5196, 5277, 5276
1804, 1875, 1876, 1957, 1956, 5196, 5197, 5278, 5277
1805, 1876, 1877, 1958, 1957, 5197, 5198, 5279, 5278
1806, 1877, 1878, 1959, 1958, 5198, 5199, 5280, 5279
1807, 1878, 1879, 1960, 1959, 5199, 5200, 5281, 5280
1808, 1879, 1880, 1961, 1960, 5200, 5201, 5282, 5281
1809, 1880, 1881, 1962, 1961, 5201, 5202, 5283, 5282
1810, 1881, 1882, 1963, 1962, 5202, 5203, 5284, 5283
1811, 1882, 1883, 1964, 1963, 5203, 5204, 5285, 5284
1812, 1883, 1884, 1965, 1964, 5204, 5205, 5286, 5285
1813, 1884, 1885, 1966, 1965, 5205, 5206, 5287, 5286
1814, 1885, 1886, 1967, 1966, 5206, 5207, 5288, 5287
1815, 1886, 1887, 1968, 1967, 5207, 5208, 5289, 5288
1816, 1887, 1888, 1969, 1968, 5208, 5209, 5290, 5289
1817, 1888, 1889, 1970, 1969, 5209, 5210, 5291, 5290
1818, 1889, 1890, 1971, 1970, 5210, 5211, 5292, 5291
1819, 1890, 1891, 1972, 1971, 5211, 5212, 5293, 5292
1820, 1891, 1892, 1973, 1972, 5212, 5213, 5294, 5293
1821, 1892, 1893, 1974, 1973, 5213, 5214, 5295, 5294
1822, 1893, 1894, 1975, 1974, 5214, 5215, 5296, 5295
1823, 1894, 1895, 1976, 1975, 5215, 5216, 5297, 5296
1824, 1895, 1896, 1977, 1976, 5216, 5217, 5298, 5297
1825, 1896, 1897, 1978, 1977, 5217, 5218, 5299, 5298
1826, 1897, 1898, 1979, 1978, 5218, 5219, 5300, 5299
1827, 1898, 1899, 1980, 1979, 5219, 5220, 5301, 5300
1828, 1899, 1900, 1981, 1980, 5220, 5221, 5302, 5301
1829, 1900, 1901, 1982, 1981, 5221, 5222, 5303, 5302
1830, 1901, 1902, 1983, 1982, 5222, 5223, 5304, 5303
1831, 1906, 1907, 1988, 1987, 5227, 5228, 5309, 5308
1832, 1907, 1908, 1989, 1988, 5228, 5229, 5310, 5309
1833, 1908, 1909, 1990, 1989, 5229, 5230, 5311, 5310
1834, 1909, 1910, 1991, 1990, 5230, 5231, 5312, 5311
1835, 1910, 1911, 1992, 1991, 5231, 5232, 5313, 5312
1836, 1911, 1912, 1993, 1992, 5232, 5233, 5314, 5313
1837, 1912, 1913, 1994, 1993, 5233, 5234, 5315, 5314
1838, 1913, 1914, 1995, 1994, 5234, 5235, 5316, 5315
1839, 1914, 1915, 1996, 1995, 5235, 5236, 5317, 5316
1840, 1915, 1916, 1997, 1996, 5236, 5237, 5318, 5317
1841, 1916, 1917, 1998, 1997, 5237, 5238, 5319, 5318
1842, 1917, 1918, 1999, 1998, 5238, 5239, 5320, 5319
1843, 1918, 1919, 2000, 1999, 5239, 5240, 5321, 5320
1844, 1919, 1920, 2001, 2000, 5240, 5241, 5322, 5321
1845, 1920, 1921, 2002, 2001, 5241, 5242, 5323, 5322
1846, 1921, 1922, 2003, 2002, 5242, 5243, 5324, 5323
1847, 1922, 1923, 2004, 2003, 5243, 5244, 5325, 5324
1848, 1923, 1924, 2005, 2004, 5244, 5245, 5326, 5325
1849, 1924, 1925, 2006, 2005, 5245, 5246, 5327, 5326
1850, 1925, 1926, 2007, 2006, 5246, 5247, 5328, 5327
1851, 1926, 1927, 2008, 2007, 5247, 5248, 5329, 5328
1852, 1927, 1928, 2009, 2008, 5248, 5249, 5330, 5329
1853, 1928, 1929, 2010, 2009, 5249, 5250, 5331, 5330
1854, 1929, 1930, 2011, 2010, 5250, 5251, 5332, 5331
1855, 1930, 1931, 2012, 2011, 5251, 5252, 5333, 5332
1856, 1931, 1932, 2013, 2012, 5252, 5253, 5334, 5333
1857, 1932, 1933, 2014, 2013, 5253, 5254, 5335, 5334
1858, 1933, 1934, 2015, 2014, 5254, 5255, 5336, 5335
1859, 1934, 1935, 2016, 2015, 5255, 5256, 5337, 5336
1860, 1935, 1936, 2017, 2016, 5256, 5257, 5338, 5337
1861, 1936, 1937, 2018, 2017, 5257, 5258, 5339, 5338
1862, 1937, 1938, 2019, 2018, 5258, 5259, 5340, 5339
1863, 1938, 1939, 2020, 2019, 5259, 5260, 5341, 5340
1864, 1939, 1940, 2021, 2020, 5260, 5261, 5342, 5341
1865, 1940, 1941, 2022, 2021, 5261, 5262, 5343, 5342
1866, 1941, 1942, 2023, 2022, 5262, 5263, 5344, 5343
1867, 1942, 1943, 2024, 2023, 5263, 5264, 5345, 5344
1868, 1943, 1944, 2025, 2024, 5264, 5265, 5346, 5345
1869, 1945, 1946, 2027, 2026, 5266, 5267, 5348, 5347
1870, 1946, 1947, 2028, 2027, 5267, 5268, 5349, 5348
1871, 1947, 1948, 2029, 2028, 5268, 5269, 5350, 5349
1872, 1948, 1949, 2030, 2029, 5269, 5270, 5351, 5350
1873, 1949, 1950, 2031, 2030, 5270, 5271, 5352, 5351
1874, 1950, 1951, 2032, 2031, 5271, 5272, 5353, 5352
1875, 1951, 1952, 2033, 2032, 5272, 5273, 5354, 5353
1876, 1952, 1953, 2034, 2033, 5273, 5274, 5355, 5354
1877, 1953, 1954, 2035, 2034, 5274, 5275, 5356, 5355
1878, 1954, 1955, 2036, 2035, 5275, 5276, 5357, 5356
1879, 1955, 1956, 2037, 2036, 5276, 5277, 5358, 5357
1880, 1956, 1957, 2038, 2037, 5277, 5278, 5359, 5358
1881, 1957, 1958, 2039, 2038, 5278, 5279, 5360, 5359
1882, 1958, 1959, 2040, 2039, 5279, 5280, 5361, 5360
1883, 1959, 1960, 2041, 2040, 5280, 5281, 5362, 5361
1884, 1960, 1961, 2042, 2041, 5281, 5282, 5363, 5362
1885, 1961, 1962, 2043, 2042, 5282, 5283, 5364, 5363
1886, 1962, 1963, 2044, 2043, 5283, 5284, 5365, 5364
1887, 1963, 1964, 2045, 2044, 5284, 5285, 5366, 5365
1888, 1964, 1965, 2046, 2045, 5285, 5286, 5367, 5366
1889, 1965, 1966, 2047, 2046, 5286, 5287, 5368, 5367
1890, 1966, 1967, 2048, 2047, 5287, 5288, 5369, 5368
1891, 1967, 1968, 2049, 2048, 5288, 5289, 5370, 5369
1892, 1968, 1969, 2050, 2049, 5289, 5290, 5371, 5370
1893, 1969, 1970, 2051, 2050, 5290, 5291, 5372, 5371
1894, 1970, 1971, 2052, 2051, 5291, 5292, 5373, 5372
1895, 1971, 1972, 2053, 2052, 5292, 5293, 5374, 5373
1896, 1972, 1973, 2054, 2053, 5293, 5294, 5375, 5374
1897, 1973, 1974, 2055, 2054, 5294, 5295, 5376, 5375
1898, 1974, 1975, 2056, 2055, 5295, 5296, 5377, 5376
1899, 1975, 1976, 2057, 2056, 5296, 5297, 5378, 5377
1900, 1976, 1977, 2058, 2057, 5297, 5298, 5379, 5378
1901, 1977, 1978, 2059, 2058, 5298, 5299, 5380, 5379
1902, 1978, 1979, 2060, 2059, 5299, 5300, 5381, 5380
1903, 1979, 1980, 2061, 2060, 5300, 5301, 5382, 5381
1904, 1980, 1981, 2062, 2061, 5301, 5302, 5383, 5382
1905, 1981, 1982, 2063, 2062, 5302, 5303, 5384, 5383
1906, 1982, 1983, 2064, 2063, 5303, 5304, 5385, 5384
1907, 1983, 1984, 2065, 2064, 5304, 5305, 5386, 5385
1908, 1984, 1985, 2066, 2065, 5305, 5306, 5387, 5386
1909, 1985, 1986, 2067, 2066, 5306, 5307, 5388, 5387
1910, 1986, 1987, 2068, 2067, 5307, 5308, 5389, 5388
1911, 1987, 1988, 2069, 2068, 5308, 5309, 5390, 5389
1912, 1988, 1989, 2070, 2069, 5309, 5310, 5391, 5390
1913, 1989, 1990, 2071, 2070, 5310, 5311, 5392, 5391
1914, 1990, 1991, 2072, 2071, 5311, 5312, 5393, 5392
1915, 1991, 1992, 2073, 2072, 5312, 5313, 5394, 5393
1916, 1992, 1993, 2074, 2073, 5313, 5314, 5395, 5394
1917, 1993, 1994, 2075, 2074, 5314, 5315, 5396, 5395
1918, 1994, 1995, 2076, 2075, 5315, 5316, 5397, 5396
1919, 1995, 1996, 2077, 2076, 5316, 5317, 5398, 5397
1920, 1996, 1997, 2078, 2077, 5317, 5318, 5399, 5398
1921, 1997, 1998, 2079, 2078, 5318, 5319, 5400, 5399
1922, 1998, 1999, 2080, 2079, 5319, 5320, 5401, 5400
1923, 1999, 2000, 2081, 2080, 5320, 5321, 5402, 5401
1924, 2000, 2001, 2082, 2081, 5321, 5322, 5403, 5402
1925, 2001, 2002, 2083, 2082, 5322, 5323, 5404, 5403
1926, 2002, 2003, 2084, 2083, 5323, 5324, 5405, 5404
1927, 2003, 2004, 2085, 2084, 5324, 5325, 5406, 5405
1928, 2004, 2005, 2086, 2085, 5325, 5326, 5407, 5406
1929, 2005, 2006, 2087, 2086, 5326, 5327, 5408, 5407
1930, 2006, 2007, 2088, 2087, 5327, 5328, 5409, 5408
1931, 2007, 2008, 2089, 2088, 5328, 5329, 5410, 5409
1932, 2008, 2009, 2090, 2089, 5329, 5330, 5411, 5410
1933, 2009, 2010, 2091, 2090, 5330, 5331, 5412, 5411
1934, 2010, 2011, 2092, 2091, 5331, 5332, 5413, 5412
1935, 2011, 2012, 2093, 2092, 5332, 5333, 5414, 5413
1936, 2012, 2013, 2094, 2093, 5333, 5334, 5415, 5414
1937, 2013, 2014, 2095, 2094, 5334, 5335, 5416, 5415
1938, 2014, 2015, 2096, 2095, 5335, 5336, 5417, 5416
1939, 2015, 2016, 2097, 2096, 5336, 5337, 5418, 5417
1940, 2016, 2017, 2098, 2097, 5337, 5338, 5419, 5418
1941, 2017, 2018, 2099, 2098, 5338, 5339, 5420, 5419
1942, 2018, 2019, 2100, 2099, 5339, 5340, 5421, 5420
1943, 2019, 2020, 2101, 2100, 5340, 5341, 5422, 5421
1944, 2020, 2021, 2102, 2101, 5341, 5342, 5423, 5422
1945, 2021, 2022, 2103, 2102, 5342, 5343, 5424, 5423
1946, 2022, 2023, 2104, 2103, 5343, 5344, 5425, 5424
1947, 2023, 2024, 2105, 2104, 5344, 5345, 5426, 5425
1948, 2024, 2025, 2106, 2105, 5345, 5346, 5427, 5426
1949, 2026, 2027, 2108, 2107, 5347, 5348, 5429, 5428
1950, 2027, 2028, 2109, 2108, 5348, 5349, 5430, 5429
1951, 2028, 2029, 2110, 2109, 5349, 5350, 5431, 5430
1952, 2029, 2030, 2111, 2110, 5350, 5351, 5432, 5431
1953, 2030, 2031, 2112, 2111, 5351, 5352, 5433, 5432
1954, 2031, 2032, 2113, 2112, 5352, 5353, 5434, 5433
1955, 2032, 2033, 2114, 2113, 5353, 5354, 5435, 5434
1956, 2033, 2034, 2115, 2114, 5354, 5355, 5436, 5435
1957, 2034, 2035, 2116, 2115, 5355, 5356, 5437, 5436
1958, 2035, 2036, 2117, 2116, 5356, 5357, 5438, 5437
1959, 2036, 2037, 2118, 2117, 5357, 5358, 5439, 5438
1960, 2037, 2038, 2119, 2118, 5358, 5359, 5440, 5439
1961, 2038, 2039, 2120, 2119, 5359, 5360, 5441, 5440
1962, 2039, 2040, 2121, 2120, 5360, 5361, 5442, 5441
1963, 2040, 2041, 2122, 2121, 5361, 5362, 5443, 5442
1964, 2041, 2042, 2123, 2122, 5362, 5363, 5444, 5443
1965, 2042, 2043, 2124, 2123, 5363, 5364, 5445, 5444
1966, 2043, 2044, 2125, 2124, 5364, 5365, 5446, 5445
1967, 2044, 2045, 2126, 2125, 5365, 5366, 5447, 5446
1968, 2045, 2046, 2127, 2126, 5366, 5367, 5448, 5447
1969, 2046, 2047, 2128, 2127, 5367, 5368, 5449, 5448
1970, 2047, 2048, 2129, 2128, 5368, 5369, 5450, 5449
1971, 2048, 2049, 2130, 2129, 5369, 5370, 5451, 5450
1972, 2049, 2050, 2131, 2130, 5370, 5371, 5452, 5451
1973, 2050, 2051, 2132, 2131, 5371, 5372, 5453, 5452
1974, 2051, 2052, 2133, 2132, 5372, 5373, 5454, 5453
1975, 2052, 2053, 2134, 2133, 5373, 5374, 5455, 5454
1976, 2053, 2054, 2135, 2134, 5374, 5375, 5456, 5455
1977, 2054, 2055, 2136, 2135, 5375, 5376, 5457, 5456
1978, 2055, 2056, 2137, 2136, 5376, 5377, 5458, 5457
1979, 2056, 2057, 2138, 2137, 5377, 5378, 5459, 5458
1980, 2057, 2058, 2139, 2138, 5378, 5379, 5460, 5459
1981, 2058, 2059, 2140, 2139, 5379, 5380, 5461, 5460
1982, 2059, 2060, 2141, 2140, 5380, 5381, 5462, 5461
1983, 2060, 2061, 2142, 2141, 5381, 5382, 5463, 5462
1984, 2061, 2062, 2143, 2142, 5382, 5383, 5464, 5463
1985, 2062, 2063, 2144, 2143, 5383, 5384, 5465, 5464
1986, 2063, 2064, 2145, 2144, 5384, 5385, 5466, 5465
1987, 2064, 2065, 2146, 2145, 5385, 5386, 5467, 5466
1988, 2065, 2066, 2147, 2146, 5386, 5387, 5468, 5467
1989, 2066, 2067, 2148, 2147, 5387, 5388, 5469, 5468
1990, 2067, 2068, 2149, 2148, 5388, 5389, 5470, 5469
1991, 2068, 2069, 2150, 2149, 5389, 5390, 5471, 5470
1992, 2069, 2070, 2151, 2150, 5390, 5391, 5472, 5471
1993, 2070, 2071, 2152, 2151, 5391, 5392, 5473, 5472
1994, 2071, 2072, 2153, 2152, 5392, 5393, 5474, 5473
1995, 2072, 2073, 2154, 2153, 5393, 5394, 5475, 5474
1996, 2073, 2074, 2155, 2154, 5394, 5395, 5476, 5475
1997, 2074, 2075, 2156, 2155, 5395, 5396, 5477, 5476
1998, 2075, 2076, 2157, 2156, 5396, 5397, 5478, 5477
1999, 2076, 2077, 2158, 2157, 5397, 5398, 5479, 5478
2000, 2077, 2078, 2159, 2158, 5398, 5399, 5480, 5479
2001, 2078, 2079, 2160, 2159, 5399, 5400, 5481, 5480
2002, 2079, 2080, 2161, 2160, 5400, 5401, 5482, 5481
2003, 2080, 2081, 2162, 2161, 5401, 5402, 5483, 5482
2004, 2081, 2082, 2163, 2162, 5402, 5403, 5484, 5483
2005, 2082, 2083, 2164, 2163, 5403, 5404, 5485, 5484
2006, 2083, 2084, 2165, 2164, 5404, 5405, 5486, 5485
2007, 2084, 2085, 2166, 2165, 5405, 5406, 5487, 5486
2008, 2085, 2086, 2167, 2166, 5406, 5407, 5488, 5487
2009, 2086, 2087, 2168, 2167, 5407, 5408, 5489, 5488
2010, 2087, 2088, 2169, 2168, 5408, 5409, 5490, 5489
2011, 2088, 2089, 2170, 2169, 5409, 5410, 5491, 5490
2012, 2089, 2090, 2171, 2170, 5410, 5411, 5492, 5491
2013, 2090, 2091, 2172, 2171, 5411, 5412, 5493, 5492
2014, 2091, 2092, 2173, 2172, 5412, 5413, 5494, 5493
2015, 2092, 2093, 2174, 2173, 5413, 5414, 5495, 5494
2016, 2093, 2094, 2175, 2174, 5414, 5415, 5496, 5495
2017, 2094, 2095, 2176, 2175, 5415, 5416, 5497, 5496
2018, 2095, 2096, 2177, 2176, 5416, 5417, 5498, 5497
2019, 2096, 2097, 2178, 2177, 5417, 5418, 5499, 5498
2020, 2097, 2098, 2179, 2178, 5418, 5419, 5500, 5499
2021, 2098, 2099, 2180, 2179, 5419, 5420, 5501, 5500
2022, 2099, 2100, 2181, 2180, 5420, 5421, 5502, 5501
2023, 2100, 2101, 2182, 2181, 5421, 5422, 5503, 5502
2024, 2101, 2102, 2183, 2182, 5422, 5423, 5504, 5503
2025, 2102, 2103, 2184, 2183, 5423, 5424, 5505, 5504
2026, 2103, 2104, 2185, 2184, 5424, 5425, 5506, 5505
2027, 2104, 2105, 2186, 2185, 5425, 5426, 5507, 5506
2028, 2105, 2106, 2187, 2186, 5426, 5427, 5508, 5507
2029, 2107, 2108, 2189, 2188, 5428, 5429, 5510, 5509
2030, 2108, 2109, 2190, 2189, 5429, 5430, 5511, 5510
2031, 2109, 2110, 2191, 2190, 5430, 5431, 5512, 5511
2032, 2110, 2111, 2192, 2191, 5431, 5432, 5513, 5512
2033, 2111, 2112, 2193, 2192, 5432, 5433, 5514, 5513
2034, 2112, 2113, 2194, 2193, 5433, 5434, 5515, 5514
2035, 2113, 2114, 2195, 2194, 5434, 5435, 5516, 5515
2036, 2114, 2115, 2196, 2195, 5435, 5436, 5517, 5516
2037, 2115, 2116, 2197, 2196, 5436, 5437, 5518, 5517
2038, 2116, 2117, 2198, 2197, 5437, 5438, 5519, 5518
2039, 2117, 2118, 2199, 2198, 5438, 5439, 5520, 5519
2040, 2118, 2119, 2200, 2199, 5439, 5440, 5521, 5520
2041, 2119, 2120, 2201, 2200, 5440, 5441, 5522, 5521
2042, 2120, 2121, 2202, 2201, 5441, 5442, 5523, 5522
2043, 2121, 2122, 2203, 2202, 5442, 5443, 5524, 5523
2044, 2122, 2123, 2204, 2203, 5443, 5444, 5525, 5524
2045, 2123, 2124, 2205, 2204, 5444, 5445, 5526, 5525
2046, 2124, 2125, 2206, 2205, 5445, 5446, 5527, 5526
2047, 2125, 2126, 2207, 2206, 5446, 5447, 5528, 5527
2048, 2126, 2127, 2208, 2207, 5447, 5448, 5529, 5528
2049, 2127, 2128, 2209, 2208, 5448, 5449, 5530, 5529
2050, 2128, 2129, 2210, 2209, 5449, 5450, 5531, 5530
2051, 2129, 2130, 2211, 2210, 5450, 5451, 5532, 5531
2052, 2130, 2131, 2212, 2211, 5451, 5452, 5533, 5532
2053, 2131, 2132, 2213, 2212, 5452, 5453, 5534, 5533
2054, 2132, 2133, 2214, 2213, 5453, 5454, 5535, 5534
2055, 2133, 2134, 2215, 2214, 5454, 5455, 5536, 5535
2056, 2134, 2135, 2216, 2215, 5455, 5456, 5537, 5536
2057, 2135, 2136, 2217, 2216, 5456, 5457, 5538, 5537
2058, 2136, 2137, 2218, 2217, 5457, 5458, 5539, 5538
2059, 2137, 2138, 2219, 2218, 5458, 5459, 5540, 5539
2060, 2138, 2139, 2220, 2219, 5459, 5460, 5541, 5540
2061, 2139, 2140, 2221, 2220, 5460, 5461, 5542, 5541
2062, 2140, 2141, 2222, 2221, 5461, 5462, 5543, 5542
2063, 2141, 2142, 2223, 2222, 5462, 5463, 5544, 5543
2064, 2142, 2143, 2224, 2223, 5463, 5464, 5545, 5544
2065, 2143, 2144, 2225, 2224, 5464, 5465, 5546, 5545
2066, 2144, 2145, 2226, 2225, 5465, 5466, 5547, 5546
2067, 2145, 2146, 2227, 2226, 5466, 5467, 5548, 5547
2068, 2146, 2147, 2228, 2227, 5467, 5468, 5549, 5548
2069, 2147, 2148, 2229, 2228, 5468, 5469, 5550, 5549
2070, 2148, 2149, 2230, 2229, 5469, 5470, 5551, 5550
2071, 2149, 2150, 2231, 2230, 5470, 5471, 5552, 5551
2072, 2150, 2151, 2232, 2231, 5471, 5472, 5553, 5552
2073, 2151, 2152, 2233, 2232, 5472, 5473, 5554, 5553
2074, 2152, 2153, 2234, 2233, 5473, 5474, 5555, 5554
2075, 2153, 2154, 2235, 2234, 5474, 5475, 5556, 5555
2076, 2154, 2155, 2236, 2235, 5475, 5476, 5557, 5556
2077, 2155, 2156, 2237, 2236, 5476, 5477, 5558, 5557
2078, 2156, 2157, 2238, 2237, 5477, 5478, 5559, 5558
2079, 2157, 2158, 2239, 2238, 5478, 5479, 5560, 5559
2080, 2158, 2159, 2240, 2239, 5479, 5480, 5561, 5560
2081, 2159, 2160, 2241, 2240, 5480, 5481, 5562, 5561
2082, 2160, 2161, 2242, 2241, 5481, 5482, 5563, 5562
2083, 2161, 2162, 2243, 2242, 5482, 5483, 5564, 5563
2084, 2162, 2163, 2244, 2243, 5483, 5484, 5565, 5564
2085, 2163, 2164, 2245, 2244, 5484, 5485, 5566, 5565
2086, 2164, 2165, 2246, 2245, 5485, 5486, 5567, 5566
2087, 2165, 2166, 2247, 2246, 5486, 5487, 5568, 5567
2088, 2166, 2167, 2248, 2247, 5487, 5488, 5569, 5568
2089, 2167, 2168, 2249, 2248, 5488, 5489, 5570, 5569
2090, 2168, 2169, 2250, 2249, 5489, 5490, 5571, 5570
2091, 2169, 2170, 2251, 2250, 5490, 5491, 5572, 5571
2092, 2170, 2171, 2252, 2251, 5491, 5492, 5573, 5572
2093, 2171, 2172, 2253, 2252, 5492, 5493, 5574, 5573
2094, 2172, 2173, 2254, 2253, 5493, 5494, 5575, 5574
2095, 2173, 2174, 2255, 2254, 5494, 5495, 5576, 5575
2096, 2174, 2175, 2256, 2255, 5495, 5496, 5577, 5576
2097, 2175, 2176, 2257, 2256, 5496, 5497, 5578, 5577
2098, 2176, 2177, 2258, 2257, 5497, 5498, 5579, 5578
2099, 2177, 2178, 2259, 2258, 5498, 5499, 5580, 5579
2100, 2178, 2179, 2260, 2259, 5499, 5500, 5581, 5580
2101, 2179, 2180, 2261, 2260, 5500, 5501, 5582, 5581
2102, 2180, 2181, 2262, 2261, 5501, 5502, 5583, 5582
2103, 2181, 2182, 2263, 2262, 5502, 5503, 5584, 5583
2104, 2182, 2183, 2264, 2263, 5503, 5504, 5585, 5584
2105, 2183, 2184, 2265, 2264, 5504, 5505, 5586, 5585
2106, 2184, 2185, 2266, 2265, 5505, 5506, 5587, 5586
2107, 2185, 2186, 2267, 2266, 5506, 5507, 5588, 5587
2108, 2186, 2187, 2268, 2267, 5507, 5508, 5589, 5588
2109, 2188, 2189, 2270, 2269, 5509, 5510, 5591, 5590
2110, 2189, 2190, 2271, 2270, 5510, 5511, 5592, 5591
2111, 2190, 2191, 2272, 2271, 5511, 5512, 5593, 5592
2112, 2191, 2192, 2273, 2272, 5512, 5513, 5594, 5593
2113, 2192, 2193, 2274, 2273, 5513, 5514, 5595, 5594
2114, 2193, 2194, 2275, 2274, 5514, 5515, 5596, 5595
2115, 2194, 2195, 2276, 2275, 5515, 5516, 5597, 5596
2116, 2195, 2196, 2277, 2276, 5516, 5517, 5598, 5597
2117, 2196, 2197, 2278, 2277, 5517, 5518, 5599, 5598
2118, 2197, 2198, 2279, 2278, 5518, 5519, 5600, 5599
2119, 2198, 2199, 2280, 2279, 5519, 5520, 5601, 5600
2120, 2199, 2200, 2281, 2280, 5520, 5521, 5602, 5601
2121, 2200, 2201, 2282, 2281, 5521, 5522, 5603, 5602
2122, 2201, 2202, 2283, 2282, 5522, 5523, 5604, 5603
2123, 2202, 2203, 2284, 2283, 5523, 5524, 5605, 5604
2124, 2203, 2204, 2285, 2284, 5524, 5525, 5606, 5605
2125, 2204, 2205, 2286, 2285, 5525, 5526, 5607, 5606
2126, 2205, 2206, 2287, 2286, 5526, 5527, 5608, 5607
2127, 2206, 2207, 2288, 2287, 5527, 5528, 5609, 5608
2128, 2207, 2208, 2289, 2288, 5528, 5529, 5610, 5609
2129, 2208, 2209, 2290, 2289, 5529, 5530, 5611, 5610
2130, 2209, 2210, 2291, 2290, 5530, 5531, 5612, 5611
2131, 2210, 2211, 2292, 2291, 5531, 5532, 5613, 5612
2132, 2211, 2212, 2293, 2292, 5532, 5533, 5614, 5613
2133, 2212, 2213, 2294, 2293, 5533, 5534, 5615, 5614
2134, 2213, 2214, 2295, 2294, 5534, 5535, 5616, 5615
2135, 2214, 2215, 2296, 2295, 5535, 5536, 5617, 5616
2136, 2215, 2216, 2297, 2296, 5536, 5537, 5618, 5617
2137, 2216, 2217, 2298, 2297, 5537, 5538, 5619, 5618
2138, 2217, 2218, 2299, 2298, 5538, 5539, 5620, 5619
2139, 2218, 2219, 2300, 2299, 5539, 5540, 5621, 5620
2140, 2219, 2220, 2301, 2300, 5540, 5541, 5622, 5621
2141, 2220, 2221, 2302, 2301, 5541, 5542, 5623, 5622
2142, 2221, 2222, 2303, 2302, 5542, 5543, 5624, 5623
2143, 2222, 2223, 2304, 2303, 5543, 5544, 5625, 5624
2144, 2223, 2224, 2305, 2304, 5544, 5545, 5626, 5625
2145, 2224, 2225, 2306, 2305, 5545, 5546, 5627, 5626
2146, 2225, 2226, 2307, 2306, 5546, 5547, 5628, 5627
2147, 2226, 2227, 2308, 2307, 5547, 5548, 5629, 5628
2148, 2227, 2228, 2309, 2308, 5548, 5549, 5630, 5629
2149, 2228, 2229, 2310, 2309, 5549, 5550, 5631, 5630
2150, 2229, 2230, 2311, 2310, 5550, 5551, 5632, 5631
2151, 2230, 2231, 2312, 2311, 5551, 5552, 5633, 5632
2152, 2231, 2232, 2313, 2312, 5552, 5553, 5634, 5633
2153, 2232, 2233, 2314, 2313, 5553, 5554, 5635, 5634
2154, 2233, 2234, 2315, 2314, 5554, 5555, 5636, 5635
2155, 2234, 2235, 2316, 2315, 5555, 5556, 5637, 5636
2156, 2235, 2236, 2317, 2316, 5556, 5557, 5638, 5637
2157, 2236, 2237, 2318, 2317, 5557, 5558, 5639, 5638
2158, 2237, 2238, 2319, 2318, 5558, 5559, 5640, 5639
2159, 2238, 2239, 2320, 2319, 5559, 5560, 5641, 5640
2160, 2239, 2240, 2321, 2320, 5560, 5561, 5642, 5641
2161, 2240, 2241, 2322, 2321, 5561, 5562, 5643, 5642
2162, 2241, 2242, 2323, 2322, 5562, 5563, 5644, 5643
2163, 2242, 2243, 2324, 2323, 5563, 5564, 5645, 5644
2164, 2243, 2244, 2325, 2324, 5564, 5565, 5646, 5645
2165, 2244, 2245, 2326, 2325, 5565, 5566, 5647, 5646
2166, 2245, 2246, 2327, 2326, 5566, 5567, 5648, 5647
2167, 2246, 2247, 2328, 2327, 5567, 5568, 5649, 5648
2168, 2247, 2248, 2329, 2328, 5568, 5569, 5650, 5649
2169, 2248, 2249, 2330, 2329, 5569, 5570, 5651, 5650
2170, 2249, 2250, 2331, 2330, 5570, 5571, 5652, 5651
2171, 2250, 2251, 2332, 2331, 5571, 5572, 5653, 5652
2172, 2251, 2252, 2333, 2332, 5572, 5573, 5654, 5653
2173, 2252, 2253, 2334, 2333, 5573, 5574, 5655, 5654
2174, 2253, 2254, 2335, 2334, 5574, 5575, 5656, 5655
2175, 2254, 2255, 2336, 2335, 5575, 5576, 5657, 5656
2176, 2255, 2256, 2337, 2336, 5576, 5577, 5658, 5657
2177, 2256, 2257, 2338, 2337, 5577, 5578, 5659, 5658
2178, 2257, 2258, 2339, 2338, 5578, 5579, 5660, 5659
2179, 2258, 2259, 2340, 2339, 5579, 5580, 5661, 5660
2180, 2259, 2260, 2341, 2340, 5580, 5581, 5662, 5661
2181, 2260, 2261, 2342, 2341, 5581, 5582, 5663, 5662
2182, 2261, 2262, 2343, 2342, 5582, 5583, 5664, 5663
2183, 2262, 2263, 2344, 2343, 5583, 5584, 5665, 5664
2184, 2263, 2264, 2345, 2344, 5584, 5585, 5666, 5665
2185, 2264, 2265, 2346, 2345, 5585, 5586, 5667, 5666
2186, 2265, 2266, 2347, 2346, 5586, 5587, 5668, 5667
2187, 2266, 2267, 2348, 2347, 5587, 5588, 5669, 5668
2188, 2267, 2268, 2349, 2348, 5588, 5589, 5670, 5669
2189, 2269, 2270, 2351, 2350, 5590, 5591, 5672, 5671
2190, 2270, 2271, 2352, 2351, 5591, 5592, 5673, 5672
2191, 2271, 2272, 2353, 2352, 5592, 5593, 5674, 5673
2192, 2272, 2273, 2354, 2353, 5593, 5594, 5675, 5674
2193, 2273, 2274, 2355, 2354, 5594, 5595, 5676, 5675
2194, 2274, 2275, 2356, 2355, 5595, 5596, 5677, 5676
2195, 2275, 2276, 2357, 2356, 5596, 5597, 5678, 5677
2196, 2276, 2277, 2358, 2357, 5597, 5598, 5679, 5678
2197, 2277, 2278, 2359, 2358, 5598, 5599, 5680, 5679
2198, 2278, 2279, 2360, 2359, 5599, 5600, 5681, 5680
2199, 2279, 2280, 2361, 2360, 5600, 5601, 5682, 5681
2200, 2280, 2281, 2362, 2361, 5601, 5602, 5683, 5682
2201, 2281, 2282, 2363, 2362, 5602, 5603, 5684, 5683
2202, 2282, 2283, 2364, 2363, 5603, 5604, 5685, 5684
2203, 2283, 2284, 2365, 2364, 5604, 5605, 5686, 5685
2204, 2284, 2285, 2366, 2365, 5605, 5606, 5687, 5686
2205, 2285, 2286, 2367, 2366, 5606, 5607, 5688, 5687
2206, 2286, 2287, 2368, 2367, 5607, 5608, 5689, 5688
2207, 2287, 2288, 2369, 2368, 5608, 5609, 5690, 5689
2208, 2288, 2289, 2370, 2369, 5609, 5610, 5691, 5690
2209, 2289, 2290, 2371, 2370, 5610, 5611, 5692, 5691
2210, 2290, 2291, 2372, 2371, 5611, 5612, 5693, 5692
2211, 2291, 2292, 2373, 2372, 5612, 5613, 5694, 5693
2212, 2292, 2293, 2374, 2373, 5613, 5614, 5695, 5694
2213, 2293, 2294, 2375, 2374, 5614, 5615, 5696, 5695
2214, 2294, 2295, 2376, 2375, 5615, 5616, 5697, 5696
2215, 2295, 2296, 2377, 2376, 5616, 5617, 5698, 5697
2216, 2296, 2297, 2378, 2377, 5617, 5618, 5699, 5698
2217, 2297, 2298, 2379, 2378, 5618, 5619, 5700, 5699
2218, 2298, 2299, 2380, 2379, 5619, 5620, 5701, 5700
2219, 2299, 2300, 2381, 2380, 5620, 5621, 5702, 5701
2220, 2300, 2301, 2382, 2381, 5621, 5622, 5703, 5702
2221, 2301, 2302, 2383, 2382, 5622, 5623, 5704, 5703
2222, 2302, 2303, 2384, 2383, 5623, 5624, 5705, 5704
2223, 2303, 2304, 2385, 2384, 5624, 5625, 5706, 5705
2224, 2304, 2305, 2386, 2385, 5625, 5626, 5707, 5706
2225, 2305, 2306, 2387, 2386, 5626, 5627, 5708, 5707
2226, 2306, 2307, 2388, 2387, 5627, 5628, 5709, 5708
2227, 2307, 2308, 2389, 2388, 5628, 5629, 5710, 5709
2228, 2308, 2309, 2390, 2389, 5629, 5630, 5711, 5710
2229, 2309, 2310, 2391, 2390, 5630, 5631, 5712, 5711
2230, 2310, 2311, 2392, 2391, 5631, 5632, 5713, 5712
2231, 2311, 2312, 2393, 2392, 5632, 5633, 5714, 5713
2232, 2312, 2313, 2394, 2393, 5633, 5634, 5715, 5714
2233, 2313, 2314, 2395, 2394, 5634, 5635, 5716, 5715
2234, 2314, 2315, 2396, 2395, 5635, 5636, 5717, 5716
2235, 2315, 2316, 2397, 2396, 5636, 5637, 5718, 5717
2236, 2316, 2317, 2398, 2397, 5637, 5638, 5719, 5718
2237, 2317, 2318, 2399, 2398, 5638, 5639, 5720, 5719
2238, 2318, 2319, 2400, 2399, 5639, 5640, 5721, 5720
2239, 2319, 2320, 2401, 2400, 5640, 5641, 5722, 5721
2240, 2320, 2321, 2402, 2401, 5641, 5642, 5723, 5722
2241, 2321, 2322, 2403, 2402, 5642, 5643, 5724, 5723
2242, 2322, 2323, 2404, 2403, 5643, 5644, 5725, 5724
2243, 2323, 2324, 2405, 2404, 5644, 5645, 5726, 5725
2244, 2324, 2325, 2406, 2405, 5645, 5646, 5727, 5726
2245, 2325, 2326, 2407, 2406, 5646, 5647, 5728, 5727
2246, 2326, 2327, 2408, 2407, 5647, 5648, 5729, 5728
2247, 2327, 2328, 2409, 2408, 5648, 5649, 5730, 5729
2248, 2328, 2329, 2410, 2409, 5649, 5650, 5731, 5730
2249, 2329, 2330, 2411, 2410, 5650, 5651, 5732, 5731
2250, 2330, 2331, 2412, 2411, 5651, 5652, 5733, 5732
2251, 2331, 2332, 2413, 2412, 5652, 5653, 5734, 5733
2252, 2332, 2333, 2414, 2413, 5653, 5654, 5735, 5734
2253, 2333, 2334, 2415, 2414, 5654, 5655, 5736, 5735
2254, 2334, 2335, 2416, 2415, 5655, 5656, 5737, 5736
2255, 2335, 2336, 2417, 2416, 5656, 5657, 5738, 5737
2256, 2336, 2337, 2418, 2417, 5657, 5658, 5739, 5738
2257, 2337, 2338, 2419, 2418, 5658, 5659, 5740, 5739
2258, 2338, 2339, 2420, 2419, 5659, 5660, 5741, 5740
2259, 2339, 2340, 2421, 2420, 5660, 5661, 5742, 5741
2260, 2340, 2341, 2422, 2421, 5661, 5662, 5743, 5742
2261, 2341, 2342, 2423, 2422, 5662, 5663, 5744, 5743
2262, 2342, 2343, 2424, 2423, 5663, 5664, 5745, 5744
2263, 2343, 2344, 2425, 2424, 5664, 5665, 5746, 5745
2264, 2344, 2345, 2426, 2425, 5665, 5666, 5747, 5746
2265, 2345, 2346, 2427, 2426, 5666, 5667, 5748, 5747
2266, 2346, 2347, 2428, 2427, 5667, 5668, 5749, 5748
2267, 2347, 2348, 2429, 2428, 5668, 5669, 5750, 5749
2268, 2348, 2349, 2430, 2429, 5669, 5670, 5751, 5750
2269, 2350, 2351, 2432, 2431, 5671, 5672, 5753, 5752
2270, 2351, 2352, 2433, 2432, 5672, 5673, 5754, 5753
2271, 2352, 2353, 2434, 2433, 5673, 5674, 5755, 5754
2272, 2353, 2354, 2435, 2434, 5674, 5675, 5756, 5755
2273, 2354, 2355, 2436, 2435, 5675, 5676, 5757, 5756
2274, 2355, 2356, 2437, 2436, 5676, 5677, 5758, 5757
2275, 2356, 2357, 2438, 2437, 5677, 5678, 5759, 5758
2276, 2357, 2358, 2439, 2438, 5678, 5679, 5760, 5759
2277, 2358, 2359, 2440, 2439, 5679, 5680, 5761, 5760
2278, 2359, 2360, 2441, 2440, 5680, 5681, 5762, 5761
2279, 2360, 2361, 2442, 2441, 5681, 5682, 5763, 5762
2280, 2361, 2362, 2443, 2442, 5682, 5683, 5764, 5763
2281, 2362, 2363, 2444, 2443, 5683, 5684, 5765, 5764
2282, 2363, 2364, 2445, 2444, 5684, 5685, 5766, 5765
2283, 2364, 2365, 2446, 2445, 5685, 5686, 5767, 5766
2284, 2365, 2366, 2447, 2446, 5686, 5687, 5768, 5767
2285, 2366, 2367, 2448, 2447, 5687, 5688, 5769, 5768
2286, 2367, 2368, 2449, 2448, 5688, 5689, 5770, 5769
2287, 2368, 2369, 2450, 2449, 5689, 5690, 5771, 5770
2288, 2369, 2370, 2451, 2450, 5690, 5691, 5772, 5771
2289, 2370, 2371, 2452, 2451, 5691, 5692, 5773, 5772
2290, 2371, 2372, 2453, 2452, 5692, 5693, 5774, 5773
2291, 2372, 2373, 2454, 2453, 5693, 5694, 5775, 5774
2292, 2373, 2374, 2455, 2454, 5694, 5695, 5776, 5775
2293, 2374, 2375, 2456, 2455, 5695, 5696, 5777, 5776
2294, 2375, 2376, 2457, 2456, 5696, 5697, 5778, 5777
2295, 2376, 2377, 2458, 2457, 5697, 5698, 5779, 5778
2296, 2377, 2378, 2459, 2458, 5698, 5699, 5780, 5779
2297, 2378, 2379, 2460, 2459, 5699, 5700, 5781, 5780
2298, 2379, 2380, 2461, 2460, 5700, 5701, 5782, 5781
2299, 2380, 2381, 2462, 2461, 5701, 5702, 5783, 5782
2300, 2381, 2382, 2463, 2462, 5702, 5703, 5784, 5783
2301, 2382, 2383, 2464, 2463, 5703, 5704, 5785, 5784
2302, 2383, 2384, 2465, 2464, 5704, 5705, 5786, 5785
2303, 2384, 2385, 2466, 2465, 5705, 5706, 5787, 5786
2304, 2385, 2386, 2467, 2466, 5706, 5707, 5788, 5787
2305, 2386, 2387, 2468, 2467, 5707, 5708, 5789, 5788
2306, 2387, 2388, 2469, 2468, 5708, 5709, 5790, 5789
2307, 2388, 2389, 2470, 2469, 5709, 5710, 5791, 5790
2308, 2389, 2390, 2471, 2470, 5710, 5711, 5792, 5791
2309, 2390, 2391, 2472, 2471, 5711, 5712, 5793, 5792
2310, 2391, 2392, 2473, 2472, 5712, 5713, 5794, 5793
2311, 2392, 2393, 2474, 2473, 5713, 5714, 5795, 5794
2312, 2393, 2394, 2475, 2474, 5714, 5715, 5796, 5795
2313, 2394, 2395, 2476, 2475, 5715, 5716, 5797, 5796
2314, 2395, 2396, 2477, 2476, 5716, 5717, 5798, 5797
2315, 2396, 2397, 2478, 2477, 5717, 5718, 5799, 5798
2316, 2397, 2398, 2479, 2478, 5718, 5719, 5800, 5799
2317, 2398, 2399, 2480, 2479, 5719, 5720, 5801, 5800
2318, 2399, 2400, 2481, 2480, 5720, 5721, 5802, 5801
2319, 2400, 2401, 2482, 2481, 5721, 5722, 5803, 5802
2320, 2401, 2402, 2483, 2482, 5722, 5723, 5804, 5803
2321, 2402, 2403, 2484, 2483, 5723, 5724, 5805, 5804
2322, 2403, 2404, 2485, 2484, 5724, 5725, 5806, 5805
2323, 2404, 2405, 2486, 2485, 5725, 5726, 5807, 5806
2324, 2405, 2406, 2487, 2486, 5726, 5727, 5808, 5807
2325, 2406, 2407, 2488, 2487, 5727, 5728, 5809, 5808
2326, 2407, 2408, 2489, 2488, 5728, 5729, 5810, 5809
2327, 2408, 2409, 2490, 2489, 5729, 5730, 5811, 5810
2328, 2409, 2410, 2491, 2490, 5730, 5731, 5812, 5811
2329, 2410, 2411, 2492, 2491, 5731, 5732, 5813, 5812
2330, 2411, 2412, 2493, 2492, 5732, 5733, 5814, 5813
2331, 2412, 2413, 2494, 2493, 5733, 5734, 5815, 5814
2332, 2413, 2414, 2495, 2494, 5734, 5735, 5816, 5815
2333, 2414, 2415, 2496, 2495, 5735, 5736, 5817, 5816
2334, 2415, 2416, 2497, 2496, 5736, 5737, 5818, 5817
2335, 2416, 2417, 2498, 2497, 5737, 5738, 5819, 5818
2336, 2417, 2418, 2499, 2498, 5738, 5739, 5820, 5819
2337, 2418, 2419, 2500, 2499, 5739, 5740, 5821, 5820
2338, 2419, 2420, 2501, 2500, 5740, 5741, 5822, 5821
2339, 2420, 2421, 2502, 2501, 5741, 5742, 5823, 5822
2340, 2421, 2422, 2503, 2502, 5742, 5743, 5824, 5823
2341, 2422, 2423, 2504, 2503, 5743, 5744, 5825, 5824
2342, 2423, 2424, 2505, 2504, 5744, 5745, 5826, 5825
2343, 2424, 2425, 2506, 2505, 5745, 5746, 5827, 5826
2344, 2425, 2426, 2507, 2506, 5746, 5747, 5828, 5827
2345, 2426, 2427, 2508, 2507, 5747, 5748, 5829, 5828
2346, 2427, 2428, 2509, 2508, 5748, 5749, 5830, 5829
2347, 2428, 2429, 2510, 2509, 5749, 5750, 5831, 5830
2348, 2429, 2430, 2511, 2510, 5750, 5751, 5832, 5831
2349, 2431, 2432, 2513, 2512, 5752, 5753, 5834, 5833
2350, 2432, 2433, 2514, 2513, 5753, 5754, 5835, 5834
2351, 2433, 2434, 2515, 2514, 5754, 5755, 5836, 5835
2352, 2434, 2435, 2516, 2515, 5755, 5756, 5837, 5836
2353, 2435, 2436, 2517, 2516, 5756, 5757, 5838, 5837
2354, 2436, 2437, 2518, 2517, 5757, 5758, 5839, 5838
2355, 2437, 2438, 2519, 2518, 5758, 5759, 5840, 5839
2356, 2438, 2439, 2520, 2519, 5759, 5760, 5841, 5840
2357, 2439, 2440, 2521, 2520, 5760, 5761, 5842, 5841
2358, 2440, 2441, 2522, 2521, 5761, 5762, 5843, 5842
2359, 2441, 2442, 2523, 2522, 5762, 5763, 5844, 5843
2360, 2442, 2443, 2524, 2523, 5763, 5764, 5845, 5844
2361, 2443, 2444, 2525, 2524, 5764, 5765, 5846, 5845
2362, 2444, 2445, 2526, 2525, 5765, 5766, 5847, 5846
2363, 2445, 2446, 2527, 2526, 5766, 5767, 5848, 5847
2364, 2446, 2447, 2528, 2527, 5767, 5768, 5849, 5848
2365, 2447, 2448, 2529, 2528, 5768, 5769, 5850, 5849
2366, 2448, 2449, 2530, 2529, 5769, 5770, 5851, 5850
2367, 2449, 2450, 2531, 2530, 5770, 5771, 5852, 5851
2368, 2450, 2451, 2532, 2531, 5771, 5772, 5853, 5852
2369, 2451, 2452, 2533, 2532, 5772, 5773, 5854, 5853
2370, 2452, 2453, 2534, 2533, 5773, 5774, 5855, 5854
2371, 2453, 2454, 2535, 2534, 5774, 5775, 5856, 5855
2372, 2454, 2455, 2536, 2535, 5775, 5776, 5857, 5856
2373, 2455, 2456, 2537, 2536, 5776, 5777, 5858, 5857
2374, 2456, 2457, 2538, 2537, 5777, 5778, 5859, 5858
2375, 2457, 2458, 2539, 2538, 5778, 5779, 5860, 5859
2376, 2458, 2459, 2540, 2539, 5779, 5780, 5861, 5860
2377, 2459, 2460, 2541, 2540, 5780, 5781, 5862, 5861
2378, 2460, 2461, 2542, 2541, 5781, 5782, 5863, 5862
2379, 2461, 2462, 2543, 2542, 5782, 5783, 5864, 5863
2380, 2462, 2463, 2544, 2543, 5783, 5784, 5865, 5864
2381, 2463, 2464, 2545, 2544, 5784, 5785, 5866, 5865
2382, 2464, 2465, 2546, 2545, 5785, 5786, 5867, 5866
2383, 2465, 2466, 2547, 2546, 5786, 5787, 5868, 5867
2384, 2466, 2467, 2548, 2547, 5787, 5788, 5869, 5868
2385, 2467, 2468, 2549, 2548, 5788, 5789, 5870, 5869
2386, 2468, 2469, 2550, 2549, 5789, 5790, 5871, 5870
2387, 2469, 2470, 2551, 2550, 5790, 5791, 5872, 5871
2388, 2470, 2471, 2552, 2551, 5791, 5792, 5873, 5872
2389, 2471, 2472, 2553, 2552, 5792, 5793, 5874, 5873
2390, 2472, 2473, 2554, 2553, 5793, 5794, 5875, 5874
2391, 2473, 2474, 2555, 2554, 5794, 5795, 5876, 5875
2392, 2474, 2475, 2556, 2555, 5795, 5796, 5877, 5876
2393, 2475, 2476, 2557, 2556, 5796, 5797, 5878, 5877
2394, 2476, 2477, 2558, 2557, 5797, 5798, 5879, 5878
2395, 2477, 2478, 2559, 2558, 5798, 5799, 5880, 5879
2396, 2478, 2479, 2560, 2559, 5799, 5800, 5881, 5880
2397, 2479, 2480, 2561, 2560, 5800, 5801, 5882, 5881
2398, 2480, 2481, 2562, 2561, 5801, 5802, 5883, 5882
2399, 2481, 2482, 2563, 2562, 5802, 5803, 5884, 5883
2400, 2482, 2483, 2564, 2563, 5803, 5804, 5885, 5884
2401, 2483, 2484, 2565, 2564, 5804, 5805, 5886, 5885
2402, 2484, 2485, 2566, 2565, 5805, 5806, 5887, 5886
2403, 2485, 2486, 2567, 2566, 5806, 5807, 5888, 5887
2404, 2486, 2487, 2568, 2567, 5807, 5808, 5889, 5888
2405, 2487, 2488, 2569, 2568, 5808, 5809, 5890, 5889
2406, 2488, 2489, 2570, 2569, 5809, 5810, 5891, 5890
2407, 2489, 2490, 2571, 2570, 5810, 5811, 5892, 5891
2408, 2490, 2491, 2572, 2571, 5811, 5812, 5893, 5892
2409, 2491, 2492, 2573, 2572, 5812, 5813, 5894, 5893
2410, 2492, 2493, 2574, 2573, 5813, 5814, 5895, 5894
2411, 2493, 2494, 2575, 2574, 5814, 5815, 5896, 5895
2412, 2494, 2495, 2576, 2575, 5815, 5816, 5897, 5896
2413, 2495, 2496, 2577, 2576, 5816, 5817, 5898, 5897
2414, 2496, 2497, 2578, 2577, 5817, 5818, 5899, 5898
2415, 2497, 2498, 2579, 2578, 5818, 5819, 5900, 5899
2416, 2498, 2499, 2580, 2579, 5819, 5820, 5901, 5900
2417, 2499, 2500, 2581, 2580, 5820, 5821, 5902, 5901
2418, 2500, 2501, 2582, 2581, 5821, 5822, 5903, 5902
2419, 2501, 2502, 2583, 2582, 5822, 5823, 5904, 5903
2420, 2502, 2503, 2584, 2583, 5823, 5824, 5905, 5904
2421, 2503, 2504, 2585, 2584, 5824, 5825, 5906, 5905
2422, 2504, 2505, 2586, 2585, 5825, 5826, 5907, 5906
2423, 2505, 2506, 2587, 2586, 5826, 5827, 5908, 5907
2424, 2506, 2507, 2588, 2587, 5827, 5828, 5909, 5908
2425, 2507, 2508, 2589, 2588, 5828, 5829, 5910, 5909
2426, 2508, 2509, 2590, 2589, 5829, 5830, 5911, 5910
2427, 2509, 2510, 2591, 2590, 5830, 5831, 5912, 5911
2428, 2510, 2511, 2592, 2591, 5831, 5832, 5913, 5912
2429, 2512, 2513, 2594, 2593, 5833, 5834, 5915, 5914
2430, 2513, 2514, 2595, 2594, 5834, 5835, 5916, 5915
2431, 2514, 2515, 2596, 2595, 5835, 5836, 5917, 5916
2432, 2515, 2516, 2597, 2596, 5836, 5837, 5918, 5917
2433, 2516, 2517, 2598, 2597, 5837, 5838, 5919, 5918
2434, 2517, 2518, 2599, 2598, 5838, 5839, 5920, 5919
2435, 2518, 2519, 2600, 2599, 5839, 5840, 5921, 5920
2436, 2519, 2520, 2601, 2600, 5840, 5841, 5922, 5921
2437, 2520, 2521, 2602, 2601, 5841, 5842, 5923, 5922
2438, 2521, 2522, 2603, 2602, 5842, 5843, 5924, 5923
2439, 2522, 2523, 2604, 2603, 5843, 5844, 5925, 5924
2440, 2523, 2524, 2605, 2604, 5844, 5845, 5926, 5925
2441, 2524, 2525, 2606, 2605, 5845, 5846, 5927, 5926
2442, 2525, 2526, 2607, 2606, 5846, 5847, 5928, 5927
2443, 2526, 2527, 2608, 2607, 5847, 5848, 5929, 5928
2444, 2527, 2528, 2609, 2608, 5848, 5849, 5930, 5929
2445, 2528, 2529, 2610, 2609, 5849, 5850, 5931, 5930
2446, 2529, 2530, 2611, 2610, 5850, 5851, 5932, 5931
2447, 2530, 2531, 2612, 2611, 5851, 5852, 5933, 5932
2448, 2531, 2532, 2613, 2612, 5852, 5853, 5934, 5933
2449, 2532, 2533, 2614, 2613, 5853, 5854, 5935, 5934
2450, 2533, 2534, 2615, 2614, 5854, 5855, 5936, 5935
2451, 2534, 2535, 2616, 2615, 5855, 5856, 5937, 5936
2452, 2535, 2536, 2617, 2616, 5856, 5857, 5938, 5937
2453, 2536, 2537, 2618, 2617, 5857, 5858, 5939, 5938
2454, 2537, 2538, 2619, 2618, 5858, 5859, 5940, 5939
2455, 2538, 2539, 2620, 2619, 5859, 5860, 5941, 5940
2456, 2539, 2540, 2621, 2620, 5860, 5861, 5942, 5941
2457, 2540, 2541, 2622, 2621, 5861, 5862, 5943, 5942
2458, 2541, 2542, 2623, 2622, 5862, 5863, 5944, 5943
2459, 2542, 2543, 2624, 2623, 5863, 5864, 5945, 5944
2460, 2543, 2544, 2625, 2624, 5864, 5865, 5946, 5945
2461, 2544, 2545, 2626, 2625, 5865, 5866, 5947, 5946
2462, 2545, 2546, 2627, 2626, 5866, 5867, 5948, 5947
2463, 2546, 2547, 2628, 2627, 5867, 5868, 5949, 5948
2464, 2547, 2548, 2629, 2628, 5868, 5869, 5950, 5949
2465, 2548, 2549, 2630, 2629, 5869, 5870, 5951, 5950
2466, 2549, 2550, 2631, 2630, 5870, 5871, 5952, 5951
2467, 2550, 2551, 2632, 2631, 5871, 5872, 5953, 5952
2468, 2551, 2552, 2633, 2632, 5872, 5873, 5954, 5953
2469, 2552, 2553, 2634, 2633, 5873, 5874, 5955, 5954
2470, 2553, 2554, 2635, 2634, 5874, 5875, 5956, 5955
2471, 2554, 2555, 2636, 2635, 5875, 5876, 5957, 5956
2472, 2555, 2556, 2637, 2636, 5876, 5877, 5958, 5957
2473, 2556, 2557, 2638, 2637, 5877, 5878, 5959, 5958
2474, 2557, 2558, 2639, 2638, 5878, 5879, 5960, 5959
2475, 2558, 2559, 2640, 2639, 5879, 5880, 5961, 5960
2476, 2559, 2560, 2641, 2640, 5880, 5881, 5962, 5961
2477, 2560, 2561, 2642, 2641, 5881, 5882, 5963, 5962
2478, 2561, 2562, 2643, 2642, 5882, 5883, 5964, 5963
2479, 2562, 2563, 2644, 2643, 5883, 5884, 5965, 5964
2480, 2563, 2564, 2645, 2644, 5884, 5885, 5966, 5965
2481, 2564, 2565, 2646, 2645, 5885, 5886, 5967, 5966
2482, 2565, 2566, 2647, 2646, 5886, 5887, 5968, 5967
2483, 2566, 2567, 2648, 2647, 5887, 5888, 5969, 5968
2484, 2567, 2568, 2649, 2648, 5888, 5889, 5970, 5969
2485, 2568, 2569, 2650, 2649, 5889, 5890, 5971, 5970
2486, 2569, 2570, 2651, 2650, 5890, 5891, 5972, 5971
2487, 2570, 2571, 2652, 2651, 5891, 5892, 5973, 5972
2488, 2571, 2572, 2653, 2652, 5892, 5893, 5974, 5973
2489, 2572, 2573, 2654, 2653, 5893, 5894, 5975, 5974
2490, 2573, 2574, 2655, 2654, 5894, 5895, 5976, 5975
2491, 2574, 2575, 2656, 2655, 5895, 5896, 5977, 5976
2492, 2575, 2576, 2657, 2656, 5896, 5897, 5978, 5977
2493, 2576, 2577, 2658, 2657, 5897, 5898, 5979, 5978
2494, 2577, 2578, 2659, 2658, 5898, 5899, 5980, 5979
2495, 2578, 2579, 2660, 2659, 5899, 5900, 5981, 5980
2496, 2579, 2580, 2661, 2660, 5900, 5901, 5982, 5981
2497, 2580, 2581, 2662, 2661, 5901, 5902, 5983, 5982
2498, 2581, 2582, 2663, 2662, 5902, 5903, 5984, 5983
2499, 2582, 2583, 2664, 2663, 5903, 5904, 5985, 5984
2500, 2583, 2584, 2665, 2664, 5904, 5905, 5986, 5985
2501, 2584, 2585, 2666, 2665, 5905, 5906, 5987, 5986
2502, 2585, 2586, 2667, 2666, 5906, 5907, 5988, 5987
2503, 2586, 2587, 2668, 2667, 5907, 5908, 5989, 5988
2504, 2587, 2588, 2669, 2668, 5908, 5909, 5990, 5989
2505, 2588, 2589, 2670, 2669, 5909, 5910, 5991, 5990
2506, 2589, 2590, 2671, 2670, 5910, 5911, 5992, 5991
2507, 2590, 2591, 2672, 2671, 5911, 5912, 5993, 5992
2508, 2591, 2592, 2673, 2672, 5912, 5913, 5994, 5993
2509, 2593, 2594, 2675, 2674, 5914, 5915, 5996, 5995
2510, 2594, 2595, 2676, 2675, 5915, 5916, 5997, 5996
2511, 2595, 2596, 2677, 2676, 5916, 5917, 5998, 5997
2512, 2596, 2597, 2678, 2677, 5917, 5918, 5999, 5998
2513, 2597, 2598, 2679, 2678, 5918, 5919, 6000, 5999
2514, 2598, 2599, 2680, 2679, 5919, 5920, 6001, 6000
2515, 2599, 2600, 2681, 2680, 5920, 5921, 6002, 6001
2516, 2600, 2601, 2682, 2681, 5921, 5922, 6003, 6002
2517, 2601, 2602, 2683, 2682, 5922, 5923, 6004, 6003
2518, 2602, 2603, 2684, 2683, 5923, 5924, 6005, 6004
2519, 2603, 2604, 2685, 2684, 5924, 5925, 6006, 6005
2520, 2604, 2605, 2686, 2685, 5925, 5926, 6007, 6006
2521, 2605, 2606, 2687, 2686, 5926, 5927, 6008, 6007
2522, 2606, 2607, 2688, 2687, 5927, 5928, 6009, 6008
2523, 2607, 2608, 2689, 2688, 5928, 5929, 6010, 6009
2524, 2608, 2609, 2690, 2689, 5929, 5930, 6011, 6010
2525, 2609, 2610, 2691, 2690, 5930, 5931, 6012, 6011
2526, 2610, 2611, 2692, 2691, 5931, 5932, 6013, 6012
2527, 2611, 2612, 2693, 2692, 5932, 5933, 6014, 6013
2528, 2612, 2613, 2694, 2693, 5933, 5934, 6015, 6014
2529, 2613, 2614, 2695, 2694, 5934, 5935, 6016, 6015
2530, 2614, 2615, 2696, 2695, 5935, 5936, 6017, 6016
2531, 2615, 2616, 2697, 2696, 5936, 5937, 6018, 6017
2532, 2616, 2617, 2698, 2697, 5937, 5938, 6019, 6018
2533, 2617, 2618, 2699, 2698, 5938, 5939, 6020, 6019
2534, 2618, 2619, 2700, 2699, 5939, 5940, 6021, 6020
2535, 2619, 2620, 2701, 2700, 5940, 5941, 6022, 6021
2536, 2620, 2621, 2702, 2701, 5941, 5942, 6023, 6022
2537, 2621, 2622, 2703, 2702, 5942, 5943, 6024, 6023
2538, 2622, 2623, 2704, 2703, 5943, 5944, 6025, 6024
2539, 2623, 2624, 2705, 2704, 5944, 5945, 6026, 6025
2540, 2624, 2625, 2706, 2705, 5945, 5946, 6027, 6026
2541, 2625, 2626, 2707, 2706, 5946, 5947, 6028, 6027
2542, 2626, 2627, 2708, 2707, 5947, 5948, 6029, 6028
2543, 2627, 2628, 2709, 2708, 5948, 5949, 6030, 6029
2544, 2628, 2629, 2710, 2709, 5949, 5950, 6031, 6030
2545, 2629, 2630, 2711, 2710, 5950, 5951, 6032, 6031
2546, 2630, 2631, 2712, 2711, 5951, 5952, 6033, 6032
2547, 2631, 2632, 2713, 2712, 5952, 5953, 6034, 6033
2548, 2632, 2633, 2714, 2713, 5953, 5954, 6035, 6034
2549, 2633, 2634, 2715, 2714, 5954, 5955, 6036, 6035
2550, 2634, 2635, 2716, 2715, 5955, 5956, 6037, 6036
2551, 2635, 2636, 2717, 2716, 5956, 5957, 6038, 6037
2552, 2636, 2637, 2718, 2717, 5957, 5958, 6039, 6038
2553, 2637, 2638, 2719, 2718, 5958, 5959, 6040, 6039
2554, 2638, 2639, 2720, 2719, 5959, 5960, 6041, 6040
2555, 2639, 2640, 2721, 2720, 5960, 5961, 6042, 6041
2556, 2640, 2641, 2722, 2721, 5961, 5962, 6043, 6042
2557, 2641, 2642, 2723, 2722, 5962, 5963, 6044, 6043
2558, 2642, 2643, 2724, 2723, 5963, 5964, 6045, 6044
2559, 2643, 2644, 2725, 2724, 5964, 5965, 6046, 6045
2560, 2644, 2645, 2726, 2725, 5965, 5966, 6047, 6046
2561, 2645, 2646, 2727, 2726, 5966, 5967, 6048, 6047
2562, 2646, 2647, 2728, 2727, 5967, 5968, 6049, 6048
2563, 2647, 2648, 2729, 2728, 5968, 5969, 6050, 6049
2564, 2648, 2649, 2730, 2729, 5969, 5970, 6051, 6050
2565, 2649, 2650, 2731, 2730, 5970, 5971, 6052, 6051
2566, 2650, 2651, 2732, 2731, 5971, 5972, 6053, 6052
2567, 2651, 2652, 2733, 2732, 5972, 5973, 6054, 6053
2568, 2652, 2653, 2734, 2733, 5973, 5974, 6055, 6054
2569, 2653, 2654, 2735, 2734, 5974, 5975, 6056, 6055
2570, 2654, 2655, 2736, 2735, 5975, 5976, 6057, 6056
2571, 2655, 2656, 2737, 2736, 5976, 5977, 6058, 6057
2572, 2656, 2657, 2738, 2737, 5977, 5978, 6059, 6058
2573, 2657, 2658, 2739, 2738, 5978, 5979, 6060, 6059
2574, 2658, 2659, 2740, 2739, 5979, 5980, 6061, 6060
2575, 2659, 2660, 2741, 2740, 5980, 5981, 6062, 6061
2576, 2660, 2661, 2742, 2741, 5981, 5982, 6063, 6062
2577, 2661, 2662, 2743, 2742, 5982, 5983, 6064, 6063
2578, 2662, 2663, 2744, 2743, 5983, 5984, 6065, 6064
2579, 2663, 2664, 2745, 2744, 5984, 5985, 6066, 6065
2580, 2664, 2665, 2746, 2745, 5985, 5986, 6067, 6066
2581, 2665, 2666, 2747, 2746, 5986, 5987, 6068, 6067
2582, 2666, 2667, 2748, 2747, 5987, 5988, 6069, 6068
2583, 2667, 2668, 2749, 2748, 5988, 5989, 6070, 6069
2584, 2668, 2669, 2750, 2749, 5989, 5990, 6071, 6070
2585, 2669, 2670, 2751, 2750, 5990, 5991, 6072, 6071
2586, 2670, 2671, 2752, 2751, 5991, 5992, 6073, 6072
2587, 2671, 2672, 2753, 2752, 5992, 5993, 6074, 6073
2588, 2672, 2673, 2754, 2753, 5993, 5994, 6075, 6074
2589, 2674, 2675, 2756, 2755, 5995, 5996, 6077, 6076
2590, 2675, 2676, 2757, 2756, 5996, 5997, 6078, 6077
2591, 2676, 2677, 2758, 2757, 5997, 5998, 6079, 6078
2592, 2677, 2678, 2759, 2758, 5998, 5999, 6080, 6079
2593, 2678, 2679, 2760, 2759, 5999, 6000, 6081, 6080
2594, 2679, 2680, 2761, 2760, 6000, 6001, 6082, 6081
2595, 2680, 2681, 2762, 2761, 6001, 6002, 6083, 6082
2596, 2681, 2682, 2763, 2762, 6002, 6003, 6084, 6083
2597, 2682, 2683, 2764, 2763, 6003, 6004, 6085, 6084
2598, 2683, 2684, 2765, 2764, 6004, 6005, 6086, 6085
2599, 2684, 2685, 2766, 2765, 6005, 6006, 6087, 6086
2600, 2685, 2686, 2767, 2766, 6006, 6007, 6088, 6087
2601, 2686, 2687, 2768, 2767, 6007, 6008, 6089, 6088
2602, 2687, 2688, 2769, 2768, 6008, 6009, 6090, 6089
2603, 2688, 2689, 2770, 2769, 6009, 6010, 6091, 6090
2604, 2689, 2690, 2771, 2770, 6010, 6011, 6092, 6091
2605, 2690, 2691, 2772, 2771, 6011, 6012, 6093, 6092
2606, 2691, 2692, 2773, 2772, 6012, 6013, 6094, 6093
2607, 2692, 2693, 2774, 2773, 6013, 6014, 6095, 6094
2608, 2693, 2694, 2775, 2774, 6014, 6015, 6096, 6095
2609, 2694, 2695, 2776, 2775, 6015, 6016, 6097, 6096
2610, 2695, 2696, 2777, 2776, 6016, 6017, 6098, 6097
2611, 2696, 2697, 2778, 2777, 6017, 6018, 6099, 6098
2612, 2697, 2698, 2779, 2778, 6018, 6019, 6100, 6099
2613, 2698, 2699, 2780, 2779, 6019, 6020, 6101, 6100
2614, 2699, 2700, 2781, 2780, 6020, 6021, 6102, 6101
2615, 2700, 2701, 2782, 2781, 6021, 6022, 6103, 6102
2616, 2701, 2702, 2783, 2782, 6022, 6023, 6104, 6103
2617, 2702, 2703, 2784, 2783, 6023, 6024, 6105, 6104
2618, 2703, 2704, 2785, 2784, 6024, 6025, 6106, 6105
2619, 2704, 2705, 2786, 2785, 6025, 6026, 6107, 6106
2620, 2705, 2706, 2787, 2786, 6026, 6027, 6108, 6107
2621, 2706, 2707, 2788, 2787, 6027, 6028, 6109, 6108
2622, 2707, 2708, 2789, 2788, 6028, 6029, 6110, 6109
2623, 2708, 2709, 2790, 2789, 6029, 6030, 6111, 6110
2624, 2709, 2710, 2791, 2790, 6030, 6031, 6112, 6111
2625, 2710, 2711, 2792, 2791, 6031, 6032, 6113, 6112
2626, 2711, 2712, 2793, 2792, 6032, 6033, 6114, 6113
2627, 2712, 2713, 2794, 2793, 6033, 6034, 6115, 6114
2628, 2713, 2714, 2795, 2794, 6034, 6035, 6116, 6115
2629, 2714, 2715, 2796, 2795, 6035, 6036, 6117, 6116
2630, 2715, 2716, 2797, 2796, 6036, 6037, 6118, 6117
2631, 2716, 2717, 2798, 2797, 6037, 6038, 6119, 6118
2632, 2717, 2718, 2799, 2798, 6038, 6039, 6120, 6119
2633, 2718, 2719, 2800, 2799, 6039, 6040, 6121, 6120
2634, 2719, 2720, 2801, 2800, 6040, 6041, 6122, 6121
2635, 2720, 2721, 2802, 2801, 6041, 6042, 6123, 6122
2636, 2721, 2722, 2803, 2802, 6042, 6043, 6124, 6123
2637, 2722, 2723, 2804, 2803, 6043, 6044, 6125, 6124
2638, 2723, 2724, 2805, 2804, 6044, 6045, 6126, 6125
2639, 2724, 2725, 2806, 2805, 6045, 6046, 6127, 6126
2640, 2725, 2726, 2807, 2806, 6046, 6047, 6128, 6127
2641, 2726, 2727, 2808, 2807, 6047, 6048, 6129, 6128
2642, 2727, 2728, 2809, 2808, 6048, 6049, 6130, 6129
2643, 2728, 2729, 2810, 2809, 6049, 6050, 6131, 6130
2644, 2729, 2730, 2811, 2810, 6050, 6051, 6132, 6131
2645, 2730, 2731, 2812, 2811, 6051, 6052, 6133, 6132
2646, 2731, 2732, 2813, 2812, 6052, 6053, 6134, 6133
2647, 2732, 2733, 2814, 2813, 6053, 6054, 6135, 6134
2648, 2733, 2734, 2815, 2814, 6054, 6055, 6136, 6135
2649, 2734, 2735, 2816, 2815, 6055, 6056, 6137, 6136
2650, 2735, 2736, 2817, 2816, 6056, 6057, 6138, 6137
2651, 2736, 2737, 2818, 2817, 6057, 6058, 6139, 6138
2652, 2737, 2738, 2819, 2818, 6058, 6059, 6140, 6139
2653, 2738, 2739, 2820, 2819, 6059, 6060, 6141, 6140
2654, 2739, 2740, 2821, 2820, 6060, 6061, 6142, 6141
2655, 2740, 2741, 2822, 2821, 6061, 6062, 6143, 6142
2656, 2741, 2742, 2823, 2822, 6062, 6063, 6144, 6143
2657, 2742, 2743, 2824, 2823, 6063, 6064, 6145, 6144
2658, 2743, 2744, 2825, 2824, 6064, 6065, 6146, 6145
2659, 2744, 2745, 2826, 2825, 6065, 6066, 6147, 6146
2660, 2745, 2746, 2827, 2826, 6066, 6067, 6148, 6147
2661, 2746, 2747, 2828, 2827, 6067, 6068, 6149, 6148
2662, 2747, 2748, 2829, 2828, 6068, 6069, 6150, 6149
2663, 2748, 2749, 2830, 2829, 6069, 6070, 6151, 6150
2664, 2749, 2750, 2831, 2830, 6070, 6071, 6152, 6151
2665, 2750, 2751, 2832, 2831, 6071, 6072, 6153, 6152
2666, 2751, 2752, 2833, 2832, 6072, 6073, 6154, 6153
2667, 2752, 2753, 2834, 2833, 6073, 6074, 6155, 6154
2668, 2753, 2754, 2835, 2834, 6074, 6075, 6156, 6155
2669, 2755, 2756, 2837, 2836, 6076, 6077, 6158, 6157
2670, 2756, 2757, 2838, 2837, 6077, 6078, 6159, 6158
2671, 2757, 2758, 2839, 2838, 6078, 6079, 6160, 6159
2672, 2758, 2759, 2840, 2839, 6079, 6080, 6161, 6160
2673, 2759, 2760, 2841, 2840, 6080, 6081, 6162, 6161
2674, 2760, 2761, 2842, 2841, 6081, 6082, 6163, 6162
2675, 2761, 2762, 2843, 2842, 6082, 6083, 6164, 6163
2676, 2762, 2763, 2844, 2843, 6083, 6084, 6165, 6164
2677, 2763, 2764, 2845, 2844, 6084, 6085, 6166, 6165
2678, 2764, 2765, 2846, 2845, 6085, 6086, 6167, 6166
2679, 2765, 2766, 2847, 2846, 6086, 6087, 6168, 6167
2680, 2766, 2767, 2848, 2847, 6087, 6088, 6169, 6168
2681, 2767, 2768, 2849, 2848, 6088, 6089, 6170, 6169
2682, 2768, 2769, 2850, 2849, 6089, 6090, 6171, 6170
2683, 2769, 2770, 2851, 2850, 6090, 6091, 6172, 6171
2684, 2770, 2771, 2852, 2851, 6091, 6092, 6173, 6172
2685, 2771, 2772, 2853, 2852, 6092, 6093, 6174, 6173
2686, 2772, 2773, 2854, 2853, 6093, 6094, 6175, 6174
2687, 2773, 2774, 2855, 2854, 6094, 6095, 6176, 6175
2688, 2774, 2775, 2856, 2855, 6095, 6096, 6177, 6176
2689, 2775, 2776, 2857, 2856, 6096, 6097, 6178, 6177
2690, 2776, 2777, 2858, 2857, 6097, 6098, 6179, 6178
2691, 2777, 2778, 2859, 2858, 6098, 6099, 6180, 6179
2692, 2778, 2779, 2860, 2859, 6099, 6100, 6181, 6180
2693, 2779, 2780, 2861, 2860, 6100, 6101, 6182, 6181
2694, 2780, 2781, 2862, 2861, 6101, 6102, 6183, 6182
2695, 2781, 2782, 2863, 2862, 6102, 6103, 6184, 6183
2696, 2782, 2783, 2864, 2863, 6103, 6104, 6185, 6184
2697, 2783, 2784, 2865, 2864, 6104, 6105, 6186, 6185
2698, 2784, 2785, 2866, 2865, 6105, 6106, 6187, 6186
2699, 2785, 2786, 2867, 2866, 6106, 6107, 6188, 6187
2700, 2786, 2787, 2868, 2867, 6107, 6108, 6189, 6188
2701, 2787, 2788, 2869, 2868, 6108, 6109, 6190, 6189
2702, 2788, 2789, 2870, 2869, 6109, 6110, 6191, 6190
2703, 2789, 2790, 2871, 2870, 6110, 6111, 6192, 6191
2704, 2790, 2791, 2872, 2871, 6111, 6112, 6193, 6192
2705, 2791, 2792, 2873, 2872, 6112, 6113, 6194, 6193
2706, 2792, 2793, 2874, 2873, 6113, 6114, 6195, 6194
2707, 2793, 2794, 2875, 2874, 6114, 6115, 6196, 6195
2708, 2794, 2795, 2876, 2875, 6115, 6116, 6197, 6196
2709, 2795, 2796, 2877, 2876, 6116, 6117, 6198, 6197
2710, 2796, 2797, 2878, 2877, 6117, 6118, 6199, 6198
2711, 2797, 2798, 2879, 2878, 6118, 6119, 6200, 6199
2712, 2798, 2799, 2880, 2879, 6119, 6120, 6201, 6200
2713, 2799, 2800, 2881, 2880, 6120, 6121, 6202, 6201
2714, 2800, 2801, 2882, 2881, 6121, 6122, 6203, 6202
2715, 2801, 2802, 2883, 2882, 6122, 6123, 6204, 6203
2716, 2802, 2803, 2884, 2883, 6123, 6124, 6205, 6204
2717, 2803, 2804, 2885, 2884, 6124, 6125, 6206, 6205
2718, 2804, 2805, 2886, 2885, 6125, 6126, 6207, 6206
2719, 2805, 2806, 2887, 2886, 6126, 6127, 6208, 6207
2720, 2806, 2807, 2888, 2887, 6127, 6128, 6209, 6208
2721, 2807, 2808, 2889, 2888, 6128, 6129, 6210, 6209
2722, 2808, 2809, 2890, 2889, 6129, 6130, 6211, 6210
2723, 2809, 2810, 2891, 2890, 6130, 6131, 6212, 6211
2724, 2810, 2811, 2892, 2891, 6131, 6132, 6213, 6212
2725, 2811, 2812, 2893, 2892, 6132, 6133, 6214, 6213
2726, 2812, 2813, 2894, 2893, 6133, 6134, 6215, 6214
2727, 2813, 2814, 2895, 2894, 6134, 6135, 6216, 6215
2728, 2814, 2815, 2896, 2895, 6135, 6136, 6217, 6216
2729, 2815, 2816, 2897, 2896, 6136, 6137, 6218, 6217
2730, 2816, 2817, 2898, 2897, 6137, 6138, 6219, 6218
2731, 2817, 2818, 2899, 2898, 6138, 6139, 6220, 6219
2732, 2818, 2819, 2900, 2899, 6139, 6140, 6221, 6220
2733, 2819, 2820, 2901, 2900, 6140, 6141, 6222, 6221
2734, 2820, 2821, 2902, 2901, 6141, 6142, 6223, 6222
2735, 2821, 2822, 2903, 2902, 6142, 6143, 6224, 6223
2736, 2822, 2823, 2904, 2903, 6143, 6144, 6225, 6224
2737, 2823, 2824, 2905, 2904, 6144, 6145, 6226, 6225
2738, 2824, 2825, 2906, 2905, 6145, 6146, 6227, 6226
2739, 2825, 2826, 2907, 2906, 6146, 6147, 6228, 6227
2740, 2826, 2827, 2908, 2907, 6147, 6148, 6229, 6228
2741, 2827, 2828, 2909, 2908, 6148, 6149, 6230, 6229
2742, 2828, 2829, 2910, 2909, 6149, 6150, 6231, 6230
2743, 2829, 2830, 2911, 2910, 6150, 6151, 6232, 6231
2744, 2830, 2831, 2912, 2911, 6151, 6152, 6233, 6232
2745, 2831, 2832, 2913, 2912, 6152, 6153, 6234, 6233
2746, 2832, 2833, 2914, 2913, 6153, 6154, 6235, 6234
2747, 2833, 2834, 2915, 2914, 6154, 6155, 6236, 6235
2748, 2834, 2835, 2916, 2915, 6155, 6156, 6237, 6236
2749, 2836, 2837, 2918, 2917, 6157, 6158, 6239, 6238
2750, 2837, 2838, 2919, 2918, 6158, 6159, 6240, 6239
2751, 2838, 2839, 2920, 2919, 6159, 6160, 6241, 6240
2752, 2839, 2840, 2921, 2920, 6160, 6161, 6242, 6241
2753, 2840, 2841, 2922, 2921, 6161, 6162, 6243, 6242
2754, 2841, 2842, 2923, 2922, 6162, 6163, 6244, 6243
2755, 2842, 2843, 2924, 2923, 6163, 6164, 6245, 6244
2756, 2843, 2844, 2925, 2924, 6164, 6165, 6246, 6245
2757, 2844, 2845, 2926, 2925, 6165, 6166, 6247, 6246
2758, 2845, 2846, 2927, 2926, 6166, 6167, 6248, 6247
2759, 2846, 2847, 2928, 2927, 6167, 6168, 6249, 6248
2760, 2847, 2848, 2929, 2928, 6168, 6169, 6250, 6249
2761, 2848, 2849, 2930, 2929, 6169, 6170, 6251, 6250
2762, 2849, 2850, 2931, 2930, 6170, 6171, 6252, 6251
2763, 2850, 2851, 2932, 2931, 6171, 6172, 6253, 6252
2764, 2851, 2852, 2933, 2932, 6172, 6173, 6254, 6253
2765, 2852, 2853, 2934, 2933, 6173, 6174, 6255, 6254
2766, 2853, 2854, 2935, 2934, 6174, 6175, 6256, 6255
2767, 2854, 2855, 2936, 2935, 6175, 6176, 6257, 6256
2768, 2855, 2856, 2937, 2936, 6176, 6177, 6258, 6257
2769, 2856, 2857, 2938, 2937, 6177, 6178, 6259, 6258
2770, 2857, 2858, 2939, 2938, 6178, 6179, 6260, 6259
2771, 2858, 2859, 2940, 2939, 6179, 6180, 6261, 6260
2772, 2859, 2860, 2941, 2940, 6180, 6181, 6262, 6261
2773, 2860, 2861, 2942, 2941, 6181, 6182, 6263, 6262
2774, 2861, 2862, 2943, 2942, 6182, 6183, 6264, 6263
2775, 2862, 2863, 2944, 2943, 6183, 6184, 6265, 6264
2776, 2863, 2864, 2945, 2944, 6184, 6185, 6266, 6265
2777, 2864, 2865, 2946, 2945, 6185, 6186, 6267, 6266
2778, 2865, 2866, 2947, 2946, 6186, 6187, 6268, 6267
2779, 2866, 2867, 2948, 2947, 6187, 6188, 6269, 6268
2780, 2867, 2868, 2949, 2948, 6188, 6189, 6270, 6269
2781, 2868, 2869, 2950, 2949, 6189, 6190, 6271, 6270
2782, 2869, 2870, 2951, 2950, 6190, 6191, 6272, 6271
2783, 2870, 2871, 2952, 2951, 6191, 6192, 6273, 6272
2784, 2871, 2872, 2953, 2952, 6192, 6193, 6274, 6273
2785, 2872, 2873, 2954, 2953, 6193, 6194, 6275, 6274
2786, 2873, 2874, 2955, 2954, 6194, 6195, 6276, 6275
2787, 2874, 2875, 2956, 2955, 6195, 6196, 6277, 6276
2788, 2875, 2876, 2957, 2956, 6196, 6197, 6278, 6277
2789, 2876, 2877, 2958, 2957, 6197, 6198, 6279, 6278
2790, 2877, 2878, 2959, 2958, 6198, 6199, 6280, 6279
2791, 2878, 2879, 2960, 2959, 6199, 6200, 6281, 6280
2792, 2879, 2880, 2961, 2960, 6200, 6201, 6282, 6281
2793, 2880, 2881, 2962, 2961, 6201, 6202, 6283, 6282
2794, 2881, 2882, 2963, 2962, 6202, 6203, 6284, 6283
2795, 2882, 2883, 2964, 2963, 6203, 6204, 6285, 6284
2796, 2883, 2884, 2965, 2964, 6204, 6205, 6286, 6285
2797, 2884, 2885, 2966, 2965, 6205, 6206, 6287, 6286
2798, 2885, 2886, 2967, 2966, 6206, 6207, 6288, 6287
2799, 2886, 2887, 2968, 2967, 6207, 6208, 6289, 6288
2800, 2887, 2888, 2969, 2968, 6208, 6209, 6290, 6289
2801, 2888, 2889, 2970, 2969, 6209, 6210, 6291, 6290
2802, 2889, 2890, 2971, 2970, 6210, 6211, 6292, 6291
2803, 2890, 2891, 2972, 2971, 6211, 6212, 6293, 6292
2804, 2891, 2892, 2973, 2972, 6212, 6213, 6294, 6293
2805, 2892, 2893, 2974, 2973, 6213, 6214, 6295, 6294
2806, 2893, 2894, 2975, 2974, 6214, 6215, 6296, 6295
2807, 2894, 2895, 2976, 2975, 6215, 6216, 6297, 6296
2808, 2895, 2896, 2977, 2976, 6216, 6217, 6298, 6297
2809, 2896, 2897, 2978, 2977, 6217, 6218, 6299, 6298
2810, 2897, 2898, 2979, 2978, 6218, 6219, 6300, 6299
2811, 2898, 2899, 2980, 2979, 6219, 6220, 6301, 6300
2812, 2899, 2900, 2981, 2980, 6220, 6221, 6302, 6301
2813, 2900, 2901, 2982, 2981, 6221, 6222, 6303, 6302
2814, 2901, 2902, 2983, 2982, 6222, 6223, 6304, 6303
2815, 2902, 2903, 2984, 2983, 6223, 6224, 6305, 6304
2816, 2903, 2904, 2985, 2984, 6224, 6225, 6306, 6305
2817, 2904, 2905, 2986, 2985, 6225, 6226, 6307, 6306
2818, 2905, 2906, 2987, 2986, 6226, 6227, 6308, 6307
2819, 2906, 2907, 2988, 2987, 6227, 6228, 6309, 6308
2820, 2907, 2908, 2989, 2988, 6228, 6229, 6310, 6309
2821, 2908, 2909, 2990, 2989, 6229, 6230, 6311, 6310
2822, 2909, 2910, 2991, 2990, 6230, 6231, 6312, 6311
2823, 2910, 2911, 2992, 2991, 6231, 6232, 6313, 6312
2824, 2911, 2912, 2993, 2992, 6232, 6233, 6314, 6313
2825, 2912, 2913, 2994, 2993, 6233, 6234, 6315, 6314
2826, 2913, 2914, 2995, 2994, 6234, 6235, 6316, 6315
2827, 2914, 2915, 2996, 2995, 6235, 6236, 6317, 6316
2828, 2915, 2916, 2997, 2996, 6236, 6237, 6318, 6317
2829, 2917, 2918, 2999, 2998, 6238, 6239, 6320, 6319
2830, 2918, 2919, 3000, 2999, 6239, 6240, 6321, 6320
2831, 2919, 2920, 3001, 3000, 6240, 6241, 6322, 6321
2832, 2920, 2921, 3002, 3001, 6241, 6242, 6323, 6322
2833, 2921, 2922, 3003, 3002, 6242, 6243, 6324, 6323
2834, 2922, 2923, 3004, 3003, 6243, 6244, 6325, 6324
2835, 2923, 2924, 3005, 3004, 6244, 6245, 6326, 6325
2836, 2924, 2925, 3006, 3005, 6245, 6246, 6327, 6326
2837, 2925, 2926, 3007, 3006, 6246, 6247, 6328, 6327
2838, 2926, 2927, 3008, 3007, 6247, 6248, 6329, 6328
2839, 2927, 2928, 3009, 3008, 6248, 6249, 6330, 6329
2840, 2928, 2929, 3010, 3009, 6249, 6250, 6331, 6330
2841, 2929, 2930, 3011, 3010, 6250, 6251, 6332, 6331
2842, 2930, 2931, 3012, 3011, 6251, 6252, 6333, 6332
2843, 2931, 2932, 3013, 3012, 6252, 6253, 6334, 6333
2844, 2932, 2933, 3014, 3013, 6253, 6254, 6335, 6334
2845, 2933, 2934, 3015, 3014, 6254, 6255, 6336, 6335
2846, 2934, 2935, 3016, 3015, 6255, 6256, 6337, 6336
2847, 2935, 2936, 3017, 3016, 6256, 6257, 6338, 6337
2848, 2936, 2937, 3018, 3017, 6257, 6258, 6339, 6338
2849, 2937, 2938, 3019, 3018, 6258, 6259, 6340, 6339
2850, 2938, 2939, 3020, 3019, 6259, 6260, 6341, 6340
2851, 2939, 2940, 3021, 3020, 6260, 6261, 6342, 6341
2852, 2940, 2941, 3022, 3021, 6261, 6262, 6343, 6342
2853, 2941, 2942, 3023, 3022, 6262, 6263, 6344, 6343
2854, 2942, 2943, 3024, 3023, 6263, 6264, 6345, 6344
2855, 2943, 2944, 3025, 3024, 6264, 6265, 6346, 6345
2856, 2944, 2945, 3026, 3025, 6265, 6266, 6347, 6346
2857, 2945, 2946, 3027, 3026, 6266, 6267, 6348, 6347
2858, 2946, 2947, 3028, 3027, 6267, 6268, 6349, 6348
2859, 2947, 2948, 3029, 3028, 6268, 6269, 6350, 6349
2860, 2948, 2949, 3030, 3029, 6269, 6270, 6351, 6350
2861, 2949, 2950, 3031, 3030, 6270, 6271, 6352, 6351
2862, 2950, 2951, 3032, 3031, 6271, 6272, 6353, 6352
2863, 2951, 2952, 3033, 3032, 6272, 6273, 6354, 6353
2864, 2952, 2953, 3034, 3033, 6273, 6274, 6355, 6354
2865, 2953, 2954, 3035, 3034, 6274, 6275, 6356, 6355
2866, 2954, 2955, 3036, 3035, 6275, 6276, 6357, 6356
2867, 2955, 2956, 3037, 3036, 6276, 6277, 6358, 6357
2868, 2956, 2957, 3038, 3037, 6277, 6278, 6359, 6358
2869, 2957, 2958, 3039, 3038, 6278, 6279, 6360, 6359
2870, 2958, 2959, 3040, 3039, 6279, 6280, 6361, 6360
2871, 2959, 2960, 3041, 3040, 6280, 6281, 6362, 6361
2872, 2960, 2961, 3042, 3041, 6281, 6282, 6363, 6362
2873, 2961, 2962, 3043, 3042, 6282, 6283, 6364, 6363
2874, 2962, 2963, 3044, 3043, 6283, 6284, 6365, 6364
2875, 2963, 2964, 3045, 3044, 6284, 6285, 6366, 6365
2876, 2964, 2965, 3046, 3045, 6285, 6286, 6367, 6366
2877, 2965, 2966, 3047, 3046, 6286, 6287, 6368, 6367
2878, 2966, 2967, 3048, 3047, 6287, 6288, 6369, 6368
2879, 2967, 2968, 3049, 3048, 6288, 6289, 6370, 6369
2880, 2968, 2969, 3050, 3049, 6289, 6290, 6371, 6370
2881, 2969, 2970, 3051, 3050, 6290, 6291, 6372, 6371
2882, 2970, 2971, 3052, 3051, 6291, 6292, 6373, 6372
2883, 2971, 2972, 3053, 3052, 6292, 6293, 6374, 6373
2884, 2972, 2973, 3054, 3053, 6293, 6294, 6375, 6374
2885, 2973, 2974, 3055, 3054, 6294, 6295, 6376, 6375
2886, 2974, 2975, 3056, 3055, 6295, 6296, 6377, 6376
2887, 2975, 2976, 3057, 3056, 6296, 6297, 6378, 6377
2888, 2976, 2977, 3058, 3057, 6297, 6298, 6379, 6378
2889, 2977, 2978, 3059, 3058, 6298, 6299, 6380, 6379
2890, 2978, 2979, 3060, 3059, 6299, 6300, 6381, 6380
2891, 2979, 2980, 3061, 3060, 6300, 6301, 6382, 6381
2892, 2980, 2981, 3062, 3061, 6301, 6302, 6383, 6382
2893, 2981, 2982, 3063, 3062, 6302, 6303, 6384, 6383
2894, 2982, 2983, 3064, 3063, 6303, 6304, 6385, 6384
2895, 2983, 2984, 3065, 3064, 6304, 6305, 6386, 6385
2896, 2984, 2985, 3066, 3065, 6305, 6306, 6387, 6386
2897, 2985, 2986, 3067, 3066, 6306, 6307, 6388, 6387
2898, 2986, 2987, 3068, 3067, 6307, 6308, 6389, 6388
2899, 2987, 2988, 3069, 3068, 6308, 6309, 6390, 6389
2900, 2988, 2989, 3070, 3069, 6309, 6310, 6391, 6390
2901, 2989, 2990, 3071, 3070, 6310, 6311, 6392, 6391
2902, 2990, 2991, 3072, 3071, 6311, 6312, 6393, 6392
2903, 2991, 2992, 3073, 3072, 6312, 6313, 6394, 6393
2904, 2992, 2993, 3074, 3073, 6313, 6314, 6395, 6394
2905, 2993, 2994, 3075, 3074, 6314, 6315, 6396, 6395
2906, 2994, 2995, 3076, 3075, 6315, 6316, 6397, 6396
2907, 2995, 2996, 3077, 3076, 6316, 6317, 6398, 6397
2908, 2996, 2997, 3078, 3077, 6317, 6318, 6399, 6398
2909, 2998, 2999, 3080, 3079, 6319, 6320, 6401, 6400
2910, 2999, 3000, 3081, 3080, 6320, 6321, 6402, 6401
2911, 3000, 3001, 3082, 3081, 6321, 6322, 6403, 6402
2912, 3001, 3002, 3083, 3082, 6322, 6323, 6404, 6403
2913, 3002, 3003, 3084, 3083, 6323, 6324, 6405, 6404
2914, 3003, 3004, 3085, 3084, 6324, 6325, 6406, 6405
2915, 3004, 3005, 3086, 3085, 6325, 6326, 6407, 6406
2916, 3005, 3006, 3087, 3086, 6326, 6327, 6408, 6407
2917, 3006, 3007, 3088, 3087, 6327, 6328, 6409, 6408
2918, 3007, 3008, 3089, 3088, 6328, 6329, 6410, 6409
2919, 3008, 3009, 3090, 3089, 6329, 6330, 6411, 6410
2920, 3009, 3010, 3091, 3090, 6330, 6331, 6412, 6411
2921, 3010, 3011, 3092, 3091, 6331, 6332, 6413, 6412
2922, 3011, 3012, 3093, 3092, 6332, 6333, 6414, 6413
2923, 3012, 3013, 3094, 3093, 6333, 6334, 6415, 6414
2924, 3013, 3014, 3095, 3094, 6334, 6335, 6416, 6415
2925, 3014, 3015, 3096, 3095, 6335, 6336, 6417, 6416
2926, 3015, 3016, 3097, 3096, 6336, 6337, 6418, 6417
2927, 3016, 3017, 3098, 3097, 6337, 6338, 6419, 6418
2928, 3017, 3018, 3099, 3098, 6338, 6339, 6420, 6419
2929, 3018, 3019, 3100, 3099, 6339, 6340, 6421, 6420
2930, 3019, 3020, 3101, 3100, 6340, 6341, 6422, 6421
2931, 3020, 3021, 3102, 3101, 6341, 6342, 6423, 6422
2932, 3021, 3022, 3103, 3102, 6342, 6343, 6424, 6423
2933, 3022, 3023, 3104, 3103, 6343, 6344, 6425, 6424
2934, 3023, 3024, 3105, 3104, 6344, 6345, 6426, 6425
2935, 3024, 3025, 3106, 3105, 6345, 6346, 6427, 6426
2936, 3025, 3026, 3107, 3106, 6346, 6347, 6428, 6427
2937, 3026, 3027, 3108, 3107, 6347, 6348, 6429, 6428
2938, 3027, 3028, 3109, 3108, 6348, 6349, 6430, 6429
2939, 3028, 3029, 3110, 3109, 6349, 6350, 6431, 6430
2940, 3029, 3030, 3111, 3110, 6350, 6351, 6432, 6431
2941, 3030, 3031, 3112, 3111, 6351, 6352, 6433, 6432
2942, 3031, 3032, 3113, 3112, 6352, 6353, 6434, 6433
2943, 3032, 3033, 3114, 3113, 6353, 6354, 6435, 6434
2944, 3033, 3034, 3115, 3114, 6354, 6355, 6436, 6435
2945, 3034, 3035, 3116, 3115, 6355, 6356, 6437, 6436
2946, 3035, 3036, 3117, 3116, 6356, 6357, 6438, 6437
2947, 3036, 3037, 3118, 3117, 6357, 6358, 6439, 6438
2948, 3037, 3038, 3119, 3118, 6358, 6359, 6440, 6439
2949, 3038, 3039, 3120, 3119, 6359, 6360, 6441, 6440
2950, 3039, 3040, 3121, 3120, 6360, 6361, 6442, 6441
2951, 3040, 3041, 3122, 3121, 6361, 6362, 6443, 6442
2952, 3041, 3042, 3123, 3122, 6362, 6363, 6444, 6443
2953, 3042, 3043, 3124, 3123, 6363, 6364, 6445, 6444
2954, 3043, 3044, 3125, 3124, 6364, 6365, 6446, 6445
2955, 3044, 3045, 3126, 3125, 6365, 6366, 6447, 6446
2956, 3045, 3046, 3127, 3126, 6366, 6367, 6448, 6447
2957, 3046, 3047, 3128, 3127, 6367, 6368, 6449, 6448
2958, 3047, 3048, 3129, 3128, 6368, 6369, 6450, 6449
2959, 3048, 3049, 3130, 3129, 6369, 6370, 6451, 6450
2960, 3049, 3050, 3131, 3130, 6370, 6371, 6452, 6451
2961, 3050, 3051, 3132, 3131, 6371, 6372, 6453, 6452
2962, 3051, 3052, 3133, 3132, 6372, 6373, 6454, 6453
2963, 3052, 3053, 3134, 3133, 6373, 6374, 6455, 6454
2964, 3053, 3054, 3135, 3134, 6374, 6375, 6456, 6455
2965, 3054, 3055, 3136, 3135, 6375, 6376, 6457, 6456
2966, 3055, 3056, 3137, 3136, 6376, 6377, 6458, 6457
2967, 3056, 3057, 3138, 3137, 6377, 6378, 6459, 6458
2968, 3057, 3058, 3139, 3138, 6378, 6379, 6460, 6459
2969, 3058, 3059, 3140, 3139, 6379, 6380, 6461, 6460
2970, 3059, 3060, 3141, 3140, 6380, 6381, 6462, 6461
2971, 3060, 3061, 3142, 3141, 6381, 6382, 6463, 6462
2972, 3061, 3062, 3143, 3142, 6382, 6383, 6464, 6463
2973, 3062, 3063, 3144, 3143, 6383, 6384, 6465, 6464
2974, 3063, 3064, 3145, 3144, 6384, 6385, 6466, 6465
2975, 3064, 3065, 3146, 3145, 6385, 6386, 6467, 6466
2976, 3065, 3066, 3147, 3146, 6386, 6387, 6468, 6467
2977, 3066, 3067, 3148, 3147, 6387, 6388, 6469, 6468
2978, 3067, 3068, 3149, 3148, 6388, 6389, 6470, 6469
2979, 3068, 3069, 3150, 3149, 6389, 6390, 6471, 6470
2980, 3069, 3070, 3151, 3150, 6390, 6391, 6472, 6471
2981, 3070, 3071, 3152, 3151, 6391, 6392, 6473, 6472
2982, 3071, 3072, 3153, 3152, 6392, 6393, 6474, 6473
2983, 3072, 3073, 3154, 3153, 6393, 6394, 6475, 6474
2984, 3073, 3074, 3155, 3154, 6394, 6395, 6476, 6475
2985, 3074, 3075, 3156, 3155, 6395, 6396, 6477, 6476
2986, 3075, 3076, 3157, 3156, 6396, 6397, 6478, 6477
2987, 3076, 3077, 3158, 3157, 6397, 6398, 6479, 6478
2988, 3077, 3078, 3159, 3158, 6398, 6399, 6480, 6479
2989, 3079, 3080, 3161, 3160, 6400, 6401, 6482, 6481
2990, 3080, 3081, 3162, 3161, 6401, 6402, 6483, 6482
2991, 3081, 3082, 3163, 3162, 6402, 6403, 6484, 6483
2992, 3082, 3083, 3164, 3163, 6403, 6404, 6485, 6484
2993, 3083, 3084, 3165, 3164, 6404, 6405, 6486, 6485
2994, 3084, 3085, 3166, 3165, 6405, 6406, 6487, 6486
2995, 3085, 3086, 3167, 3166, 6406, 6407, 6488, 6487
2996, 3086, 3087, 3168, 3167, 6407, 6408, 6489, 6488
2997, 3087, 3088, 3169, 3168, 6408, 6409, 6490, 6489
2998, 3088, 3089, 3170, 3169, 6409, 6410, 6491, 6490
2999, 3089, 3090, 3171, 3170, 6410, 6411, 6492, 6491
3000, 3090, 3091, 3172, 3171, 6411, 6412, 6493, 6492
3001, 3091, 3092, 3173, 3172, 6412, 6413, 6494, 6493
3002, 3092, 3093, 3174, 3173, 6413, 6414, 6495, 6494
3003, 3093, 3094, 3175, 3174, 6414, 6415, 6496, 6495
3004, 3094, 3095, 3176, 3175, 6415, 6416, 6497, 6496
3005, 3095, 3096, 3177, 3176, 6416, 6417, 6498, 6497
3006, 3096, 3097, 3178, 3177, 6417, 6418, 6499, 6498
3007, 3097, 3098, 3179, 3178, 6418, 6419, 6500, 6499
3008, 3098, 3099, 3180, 3179, 6419, 6420, 6501, 6500
3009, 3099, 3100, 3181, 3180, 6420, 6421, 6502, 6501
3010, 3100, 3101, 3182, 3181, 6421, 6422, 6503, 6502
3011, 3101, 3102, 3183, 3182, 6422, 6423, 6504, 6503
3012, 3102, 3103, 3184, 3183, 6423, 6424, 6505, 6504
3013, 3103, 3104, 3185, 3184, 6424, 6425, 6506, 6505
3014, 3104, 3105, 3186, 3185, 6425, 6426, 6507, 6506
3015, 3105, 3106, 3187, 3186, 6426, 6427, 6508, 6507
3016, 3106, 3107, 3188, 3187, 6427, 6428, 6509, 6508
3017, 3107, 3108, 3189, 3188, 6428, 6429, 6510, 6509
3018, 3108, 3109, 3190, 3189, 6429, 6430, 6511, 6510
3019, 3109, 3110, 3191, 3190, 6430, 6431, 6512, 6511
3020, 3110, 3111, 3192, 3191, 6431, 6432, 6513, 6512
3021, 3111, 3112, 3193, 3192, 6432, 6433, 6514, 6513
3022, 3112, 3113, 3194, 3193, 6433, 6434, 6515, 6514
3023, 3113, 3114, 3195, 3194, 6434, 6435, 6516, 6515
3024, 3114, 3115, 3196, 3195, 6435, 6436, 6517, 6516
3025, 3115, 3116, 3197, 3196, 6436, 6437, 6518, 6517
3026, 3116, 3117, 3198, 3197, 6437, 6438, 6519, 6518
3027, 3117, 3118, 3199, 3198, 6438, 6439, 6520, 6519
3028, 3118, 3119, 3200, 3199, 6439, 6440, 6521, 6520
3029, 3119, 3120, 3201, 3200, 6440, 6441, 6522, 6521
3030, 3120, 3121, 3202, 3201, 6441, 6442, 6523, 6522
3031, 3121, 3122, 3203, 3202, 6442, 6443, 6524, 6523
3032, 3122, 3123, 3204, 3203, 6443, 6444, 6525, 6524
3033, 3123, 3124, 3205, 3204, 6444, 6445, 6526, 6525
3034, 3124, 3125, 3206, 3205, 6445, 6446, 6527, 6526
3035, 3125, 3126, 3207, 3206, 6446, 6447, 6528, 6527
3036, 3126, 3127, 3208, 3207, 6447, 6448, 6529, 6528
3037, 3127, 3128, 3209, 3208, 6448, 6449, 6530, 6529
3038, 3128, 3129, 3210, 3209, 6449, 6450, 6531, 6530
3039, 3129, 3130, 3211, 3210, 6450, 6451, 6532, 6531
3040, 3130, 3131, 3212, 3211, 6451, 6452, 6533, 6532
3041, 3131, 3132, 3213, 3212, 6452, 6453, 6534, 6533
3042, 3132, 3133, 3214, 3213, 6453, 6454, 6535, 6534
3043, 3133, 3134, 3215, 3214, 6454, 6455, 6536, 6535
3044, 3134, 3135, 3216, 3215, 6455, 6456, 6537, 6536
3045, 3135, 3136, 3217, 3216, 6456, 6457, 6538, 6537
3046, 3136, 3137, 3218, 3217, 6457, 6458, 6539, 6538
3047, 3137, 3138, 3219, 3218, 6458, 6459, 6540, 6539
3048, 3138, 3139, 3220, 3219, 6459, 6460, 6541, 6540
3049, 3139, 3140, 3221, 3220, 6460, 6461, 6542, 6541
3050, 3140, 3141, 3222, 3221, 6461, 6462, 6543, 6542
3051, 3141, 3142, 3223, 3222, 6462, 6463, 6544, 6543
3052, 3142, 3143, 3224, 3223, 6463, 6464, 6545, 6544
3053, 3143, 3144, 3225, 3224, 6464, 6465, 6546, 6545
3054, 3144, 3145, 3226, 3225, 6465, 6466, 6547, 6546
3055, 3145, 3146, 3227, 3226, 6466, 6467, 6548, 6547
3056, 3146, 3147, 3228, 3227, 6467, 6468, 6549, 6548
3057, 3147, 3148, 3229, 3228, 6468, 6469, 6550, 6549
3058, 3148, 3149, 3230, 3229, 6469, 6470, 6551, 6550
3059, 3149, 3150, 3231, 3230, 6470, 6471, 6552, 6551
3060, 3150, 3151, 3232, 3231, 6471, 6472, 6553, 6552
3061, 3151, 3152, 3233, 3232, 6472, 6473, 6554, 6553
3062, 3152, 3153, 3234, 3233, 6473, 6474, 6555, 6554
3063, 3153, 3154, 3235, 3234, 6474, 6475, 6556, 6555
3064, 3154, 3155, 3236, 3235, 6475, 6476, 6557, 6556
3065, 3155, 3156, 3237, 3236, 6476, 6477, 6558, 6557
3066, 3156, 3157, 3238, 3237, 6477, 6478, 6559, 6558
3067, 3157, 3158, 3239, 3238, 6478, 6479, 6560, 6559
3068, 3158, 3159, 3240, 3239, 6479, 6480, 6561, 6560
3069, 3160, 3161, 3242, 3241, 6481, 6482, 6563, 6562
3070, 3161, 3162, 3243, 3242, 6482, 6483, 6564, 6563
3071, 3162, 3163, 3244, 3243, 6483, 6484, 6565, 6564
3072, 3163, 3164, 3245, 3244, 6484, 6485, 6566, 6565
3073, 3164, 3165, 3246, 3245, 6485, 6486, 6567, 6566
3074, 3165, 3166, 3247, 3246, 6486, 6487, 6568, 6567
3075, 3166, 3167, 3248, 3247, 6487, 6488, 6569, 6568
3076, 3167, 3168, 3249, 3248, 6488, 6489, 6570, 6569
3077, 3168, 3169, 3250, 3249, 6489, 6490, 6571, 6570
3078, 3169, 3170, 3251, 3250, 6490, 6491, 6572, 6571
3079, 3170, 3171, 3252, 3251, 6491, 6492, 6573, 6572
3080, 3171, 3172, 3253, 3252, 6492, 6493, 6574, 6573
3081, 3172, 3173, 3254, 3253, 6493, 6494, 6575, 6574
3082, 3173, 3174, 3255, 3254, 6494, 6495, 6576, 6575
3083, 3174, 3175, 3256, 3255, 6495, 6496, 6577, 6576
3084, 3175, 3176, 3257, 3256, 6496, 6497, 6578, 6577
3085, 3176, 3177, 3258, 3257, 6497, 6498, 6579, 6578
3086, 3177, 3178, 3259, 3258, 6498, 6499, 6580, 6579
3087, 3178, 3179, 3260, 3259, 6499, 6500, 6581, 6580
3088, 3179, 3180, 3261, 3260, 6500, 6501, 6582, 6581
3089, 3180, 3181, 3262, 3261, 6501, 6502, 6583, 6582
3090, 3181, 3182, 3263, 3262, 6502, 6503, 6584, 6583
3091, 3182, 3183, 3264, 3263, 6503, 6504, 6585, 6584
3092, 3183, 3184, 3265, 3264, 6504, 6505, 6586, 6585
3093, 3184, 3185, 3266, 3265, 6505, 6506, 6587, 6586
3094, 3185, 3186, 3267, 3266, 6506, 6507, 6588, 6587
3095, 3186, 3187, 3268, 3267, 6507, 6508, 6589, 6588
3096, 3187, 3188, 3269, 3268, 6508, 6509, 6590, 6589
3097, 3188, 3189, 3270, 3269, 6509, 6510, 6591, 6590
3098, 3189, 3190, 3271, 3270, 6510, 6511, 6592, 6591
3099, 3190, 3191, 3272, 3271, 6511, 6512, 6593, 6592
3100, 3191, 3192, 3273, 3272, 6512, 6513, 6594, 6593
3101, 3192, 3193, 3274, 3273, 6513, 6514, 6595, 6594
3102, 3193, 3194, 3275, 3274, 6514, 6515, 6596, 6595
3103, 3194, 3195, 3276, 3275, 6515, 6516, 6597, 6596
3104, 3195, 3196, 3277, 3276, 6516, 6517, 6598, 6597
3105, 3196, 3197, 3278, 3277, 6517, 6518, 6599, 6598
3106, 3197, 3198, 3279, 3278, 6518, 6519, 6600, 6599
3107, 3198, 3199, 3280, 3279, 6519, 6520, 6601, 6600
3108, 3199, 3200, 3281, 3280, 6520, 6521, 6602, 6601
3109, 3200, 3201, 3282, 3281, 6521, 6522, 6603, 6602
3110, 3201, 3202, 3283, 3282, 6522, 6523, 6604, 6603
3111, 3202, 3203, 3284, 3283, 6523, 6524, 6605, 6604
3112, 3203, 3204, 3285, 3284, 6524, 6525, 6606, 6605
3113, 3204, 3205, 3286, 3285, 6525, 6526, 6607, 6606
3114, 3205, 3206, 3287, 3286, 6526, 6527, 6608, 6607
3115, 3206, 3207, 3288, 3287, 6527, 6528, 6609, 6608
3116, 3207, 3208, 3289, 3288, 6528, 6529, 6610, 6609
3117, 3208, 3209, 3290, 3289, 6529, 6530, 6611, 6610
3118, 3209, 3210, 3291, 3290, 6530, 6531, 6612, 6611
3119, 3210, 3211, 3292, 3291, 6531, 6532, 6613, 6612
3120, 3211, 3212, 3293, 3292, 6532, 6533, 6614, 6613
3121, 3212, 3213, 3294, 3293, 6533, 6534, 6615, 6614
3122, 3213, 3214, 3295, 3294, 6534, 6535, 6616, 6615
3123, 3214, 3215, 3296, 3295, 6535, 6536, 6617, 6616
3124, 3215, 3216, 3297, 3296, 6536, 6537, 6618, 6617
3125, 3216, 3217, 3298, 3297, 6537, 6538, 6619, 6618
3126, 3217, 3218, 3299, 3298, 6538, 6539, 6620, 6619
3127, 3218, 3219, 3300, 3299, 6539, 6540, 6621, 6620
3128, 3219, 3220, 3301, 3300, 6540, 6541, 6622, 6621
3129, 3220, 3221, 3302, 3301, 6541, 6542, 6623, 6622
3130, 3221, 3222, 3303, 3302, 6542, 6543, 6624, 6623
3131, 3222, 3223, 3304, 3303, 6543, 6544, 6625, 6624
3132, 3223, 3224, 3305, 3304, 6544, 6545, 6626, 6625
3133, 3224, 3225, 3306, 3305, 6545, 6546, 6627, 6626
3134, 3225, 3226, 3307, 3306, 6546, 6547, 6628, 6627
3135, 3226, 3227, 3308, 3307, 6547, 6548, 6629, 6628
3136, 3227, 3228, 3309, 3308, 6548, 6549, 6630, 6629
3137, 3228, 3229, 3310, 3309, 6549, 6550, 6631, 6630
3138, 3229, 3230, 3311, 3310, 6550, 6551, 6632, 6631
3139, 3230, 3231, 3312, 3311, 6551, 6552, 6633, 6632
3140, 3231, 3232, 3313, 3312, 6552, 6553, 6634, 6633
3141, 3232, 3233, 3314, 3313, 6553, 6554, 6635, 6634
3142, 3233, 3234, 3315, 3314, 6554, 6555, 6636, 6635
3143, 3234, 3235, 3316, 3315, 6555, 6556, 6637, 6636
3144, 3235, 3236, 3317, 3316, 6556, 6557, 6638, 6637
3145, 3236, 3237, 3318, 3317, 6557, 6558, 6639, 6638
3146, 3237, 3238, 3319, 3318, 6558, 6559, 6640, 6639
3147, 3238, 3239, 3320, 3319, 6559, 6560, 6641, 6640
3148, 3239, 3240, 3321, 3320, 6560, 6561, 6642, 6641
*ELSET, ELSET=HOLE_RING
1159, 1160, 1161, 1162, 1237, 1238, 1239, 1240, 1241, 1242, 1243, 1244
1316, 1317, 1318, 1319, 1320, 1321, 1392, 1393, 1394, 1395, 1465, 1466
1467, 1468, 1537, 1538, 1539, 1540, 1609, 1610, 1611, 1612, 1681, 1682
1683, 1684, 1754, 1755, 1756, 1757, 1828, 1829, 1830, 1831, 1832, 1833
1905, 1906, 1907, 1908, 1909, 1910, 1911, 1912, 1987, 1988, 1989, 1990
*SOLID SECTION, ELSET=PLATE_ALL, MATERIAL=NEML_EQUIV_CHABOCHE
*END PART
*ASSEMBLY, NAME=ASSEMBLY
*INSTANCE, NAME=PLATE_INST, PART=PLATE_HOLE
*END INSTANCE
*NSET, NSET=LEFT_EDGE, INSTANCE=PLATE_INST
1, 82, 163, 244, 325, 406, 487, 568, 649, 730, 811, 892
973, 1054, 1135, 1216, 1297, 1378, 1459, 1540, 1621, 1702, 1783, 1864
1945, 2026, 2107, 2188, 2269, 2350, 2431, 2512, 2593, 2674, 2755, 2836
2917, 2998, 3079, 3160, 3241, 3322, 3403, 3484, 3565, 3646, 3727, 3808
3889, 3970, 4051, 4132, 4213, 4294, 4375, 4456, 4537, 4618, 4699, 4780
4861, 4942, 5023, 5104, 5185, 5266, 5347, 5428, 5509, 5590, 5671, 5752
5833, 5914, 5995, 6076, 6157, 6238, 6319, 6400, 6481, 6562
*NSET, NSET=RIGHT_EDGE, INSTANCE=PLATE_INST
81, 162, 243, 324, 405, 486, 567, 648, 729, 810, 891, 972
1053, 1134, 1215, 1296, 1377, 1458, 1539, 1620, 1701, 1782, 1863, 1944
2025, 2106, 2187, 2268, 2349, 2430, 2511, 2592, 2673, 2754, 2835, 2916
2997, 3078, 3159, 3240, 3321, 3402, 3483, 3564, 3645, 3726, 3807, 3888
3969, 4050, 4131, 4212, 4293, 4374, 4455, 4536, 4617, 4698, 4779, 4860
4941, 5022, 5103, 5184, 5265, 5346, 5427, 5508, 5589, 5670, 5751, 5832
5913, 5994, 6075, 6156, 6237, 6318, 6399, 6480, 6561, 6642
*NSET, NSET=ANCHOR_A, INSTANCE=PLATE_INST
1
*NSET, NSET=ANCHOR_B, INSTANCE=PLATE_INST
3241
*ELSET, ELSET=HOLE_RING, INSTANCE=PLATE_INST
1159, 1160, 1161, 1162, 1237, 1238, 1239, 1240, 1241, 1242, 1243, 1244
1316, 1317, 1318, 1319, 1320, 1321, 1392, 1393, 1394, 1395, 1465, 1466
1467, 1468, 1537, 1538, 1539, 1540, 1609, 1610, 1611, 1612, 1681, 1682
1683, 1684, 1754, 1755, 1756, 1757, 1828, 1829, 1830, 1831, 1832, 1833
1905, 1906, 1907, 1908, 1909, 1910, 1911, 1912, 1987, 1988, 1989, 1990
*END ASSEMBLY
*MATERIAL, NAME=NEML_EQUIV_CHABOCHE
*DEPVAR
27
*USER MATERIAL, CONSTANTS=11
200000.0, 0.3, 100.0, 50.0, 5.0, 80000.0, 900.0, 14000.0, 1500.0, 3333.0, 1.0
*AMPLITUDE, NAME=AMP_ONE_CYCLE, DEFINITION=TABULAR
0.00, 0.0
0.25, 1.0
0.50, 0.0
0.75, -1.0
1.00, 0.0
*STEP, NAME=CYCLE_0001, NLGEOM=NO, INC=160
*STATIC
0.005, 1.0, 1.0E-08, 0.025
*BOUNDARY
LEFT_EDGE, 1, 1, 0.0
ANCHOR_A, 2, 3, 0.0
ANCHOR_B, 3, 3, 0.0
*BOUNDARY, AMPLITUDE=AMP_ONE_CYCLE
RIGHT_EDGE, 1, 1, 0.10
*OUTPUT, HISTORY, FREQUENCY=1
*NODE OUTPUT, NSET=RIGHT_EDGE
U1, RF1
*OUTPUT, FIELD, NUMBER INTERVAL=4
*NODE OUTPUT
U, RF
*ELEMENT OUTPUT
S, SDV
*END STEP
*STEP, NAME=CYCLE_0002, NLGEOM=NO, INC=160
*STATIC
0.005, 1.0, 1.0E-08, 0.025
*BOUNDARY, AMPLITUDE=AMP_ONE_CYCLE
RIGHT_EDGE, 1, 1, 0.10
*OUTPUT, HISTORY, FREQUENCY=1
*NODE OUTPUT, NSET=RIGHT_EDGE
U1, RF1
*OUTPUT, FIELD, NUMBER INTERVAL=4
*NODE OUTPUT
U, RF
*ELEMENT OUTPUT
S, SDV
*END STEP
*STEP, NAME=CYCLE_0003, NLGEOM=NO, INC=160
*STATIC
0.005, 1.0, 1.0E-08, 0.025
*BOUNDARY, AMPLITUDE=AMP_ONE_CYCLE
RIGHT_EDGE, 1, 1, 0.10
*OUTPUT, HISTORY, FREQUENCY=1
*NODE OUTPUT, NSET=RIGHT_EDGE
U1, RF1
*END STEP
*STEP, NAME=CYCLE_0004, NLGEOM=NO, INC=160
*STATIC
0.005, 1.0, 1.0E-08, 0.025
*BOUNDARY, AMPLITUDE=AMP_ONE_CYCLE
RIGHT_EDGE, 1, 1, 0.10
*OUTPUT, HISTORY, FREQUENCY=1
*NODE OUTPUT, NSET=RIGHT_EDGE
U1, RF1
*END STEP
*STEP, NAME=CYCLE_0005, NLGEOM=NO, INC=160
*STATIC
0.005, 1.0, 1.0E-08, 0.025
*BOUNDARY, AMPLITUDE=AMP_ONE_CYCLE
RIGHT_EDGE, 1, 1, 0.10
*OUTPUT, HISTORY, FREQUENCY=1
*NODE OUTPUT, NSET=RIGHT_EDGE
U1, RF1
*END STEP
*STEP, NAME=CYCLE_0006, NLGEOM=NO, INC=160
*STATIC
0.005, 1.0, 1.0E-08, 0.025
*BOUNDARY, AMPLITUDE=AMP_ONE_CYCLE
RIGHT_EDGE, 1, 1, 0.10
*OUTPUT, HISTORY, FREQUENCY=1
*NODE OUTPUT, NSET=RIGHT_EDGE
U1, RF1
*END STEP
*STEP, NAME=CYCLE_0007, NLGEOM=NO, INC=160
*STATIC
0.005, 1.0, 1.0E-08, 0.025
*BOUNDARY, AMPLITUDE=AMP_ONE_CYCLE
RIGHT_EDGE, 1, 1, 0.10
*OUTPUT, HISTORY, FREQUENCY=1
*NODE OUTPUT, NSET=RIGHT_EDGE
U1, RF1
*END STEP
*STEP, NAME=CYCLE_0008, NLGEOM=NO, INC=160
*STATIC
0.005, 1.0, 1.0E-08, 0.025
*BOUNDARY, AMPLITUDE=AMP_ONE_CYCLE
RIGHT_EDGE, 1, 1, 0.10
*OUTPUT, HISTORY, FREQUENCY=1
*NODE OUTPUT, NSET=RIGHT_EDGE
U1, RF1
*END STEP
*STEP, NAME=CYCLE_0009, NLGEOM=NO, INC=160
*STATIC
0.005, 1.0, 1.0E-08, 0.025
*BOUNDARY, AMPLITUDE=AMP_ONE_CYCLE
RIGHT_EDGE, 1, 1, 0.10
*OUTPUT, HISTORY, FREQUENCY=1
*NODE OUTPUT, NSET=RIGHT_EDGE
U1, RF1
*END STEP
*STEP, NAME=CYCLE_0010, NLGEOM=NO, INC=160
*STATIC
0.005, 1.0, 1.0E-08, 0.025
*BOUNDARY, AMPLITUDE=AMP_ONE_CYCLE
RIGHT_EDGE, 1, 1, 0.10
*OUTPUT, HISTORY, FREQUENCY=1
*NODE OUTPUT, NSET=RIGHT_EDGE
U1, RF1
*OUTPUT, FIELD, NUMBER INTERVAL=4
*NODE OUTPUT
U, RF
*ELEMENT OUTPUT
S, SDV
*END STEP
*STEP, NAME=CYCLE_0011, NLGEOM=NO, INC=160
*STATIC
0.005, 1.0, 1.0E-08, 0.025
*BOUNDARY, AMPLITUDE=AMP_ONE_CYCLE
RIGHT_EDGE, 1, 1, 0.10
*OUTPUT, HISTORY, FREQUENCY=1
*NODE OUTPUT, NSET=RIGHT_EDGE
U1, RF1
*END STEP
*STEP, NAME=CYCLE_0012, NLGEOM=NO, INC=160
*STATIC
0.005, 1.0, 1.0E-08, 0.025
*BOUNDARY, AMPLITUDE=AMP_ONE_CYCLE
RIGHT_EDGE, 1, 1, 0.10
*OUTPUT, HISTORY, FREQUENCY=1
*NODE OUTPUT, NSET=RIGHT_EDGE
U1, RF1
*END STEP
*STEP, NAME=CYCLE_0013, NLGEOM=NO, INC=160
*STATIC
0.005, 1.0, 1.0E-08, 0.025
*BOUNDARY, AMPLITUDE=AMP_ONE_CYCLE
RIGHT_EDGE, 1, 1, 0.10
*OUTPUT, HISTORY, FREQUENCY=1
*NODE OUTPUT, NSET=RIGHT_EDGE
U1, RF1
*END STEP
*STEP, NAME=CYCLE_0014, NLGEOM=NO, INC=160
*STATIC
0.005, 1.0, 1.0E-08, 0.025
*BOUNDARY, AMPLITUDE=AMP_ONE_CYCLE
RIGHT_EDGE, 1, 1, 0.10
*OUTPUT, HISTORY, FREQUENCY=1
*NODE OUTPUT, NSET=RIGHT_EDGE
U1, RF1
*END STEP
*STEP, NAME=CYCLE_0015, NLGEOM=NO, INC=160
*STATIC
0.005, 1.0, 1.0E-08, 0.025
*BOUNDARY, AMPLITUDE=AMP_ONE_CYCLE
RIGHT_EDGE, 1, 1, 0.10
*OUTPUT, HISTORY, FREQUENCY=1
*NODE OUTPUT, NSET=RIGHT_EDGE
U1, RF1
*END STEP
*STEP, NAME=CYCLE_0016, NLGEOM=NO, INC=160
*STATIC
0.005, 1.0, 1.0E-08, 0.025
*BOUNDARY, AMPLITUDE=AMP_ONE_CYCLE
RIGHT_EDGE, 1, 1, 0.10
*OUTPUT, HISTORY, FREQUENCY=1
*NODE OUTPUT, NSET=RIGHT_EDGE
U1, RF1
*END STEP
*STEP, NAME=CYCLE_0017, NLGEOM=NO, INC=160
*STATIC
0.005, 1.0, 1.0E-08, 0.025
*BOUNDARY, AMPLITUDE=AMP_ONE_CYCLE
RIGHT_EDGE, 1, 1, 0.10
*OUTPUT, HISTORY, FREQUENCY=1
*NODE OUTPUT, NSET=RIGHT_EDGE
U1, RF1
*END STEP
*STEP, NAME=CYCLE_0018, NLGEOM=NO, INC=160
*STATIC
0.005, 1.0, 1.0E-08, 0.025
*BOUNDARY, AMPLITUDE=AMP_ONE_CYCLE
RIGHT_EDGE, 1, 1, 0.10
*OUTPUT, HISTORY, FREQUENCY=1
*NODE OUTPUT, NSET=RIGHT_EDGE
U1, RF1
*END STEP
*STEP, NAME=CYCLE_0019, NLGEOM=NO, INC=160
*STATIC
0.005, 1.0, 1.0E-08, 0.025
*BOUNDARY, AMPLITUDE=AMP_ONE_CYCLE
RIGHT_EDGE, 1, 1, 0.10
*OUTPUT, HISTORY, FREQUENCY=1
*NODE OUTPUT, NSET=RIGHT_EDGE
U1, RF1
*END STEP
*STEP, NAME=CYCLE_0020, NLGEOM=NO, INC=160
*STATIC
0.005, 1.0, 1.0E-08, 0.025
*BOUNDARY, AMPLITUDE=AMP_ONE_CYCLE
RIGHT_EDGE, 1, 1, 0.10
*OUTPUT, HISTORY, FREQUENCY=1
*NODE OUTPUT, NSET=RIGHT_EDGE
U1, RF1
*END STEP
*STEP, NAME=CYCLE_0021, NLGEOM=NO, INC=160
*STATIC
0.005, 1.0, 1.0E-08, 0.025
*BOUNDARY, AMPLITUDE=AMP_ONE_CYCLE
RIGHT_EDGE, 1, 1, 0.10
*OUTPUT, HISTORY, FREQUENCY=1
*NODE OUTPUT, NSET=RIGHT_EDGE
U1, RF1
*END STEP
*STEP, NAME=CYCLE_0022, NLGEOM=NO, INC=160
*STATIC
0.005, 1.0, 1.0E-08, 0.025
*BOUNDARY, AMPLITUDE=AMP_ONE_CYCLE
RIGHT_EDGE, 1, 1, 0.10
*OUTPUT, HISTORY, FREQUENCY=1
*NODE OUTPUT, NSET=RIGHT_EDGE
U1, RF1
*END STEP
*STEP, NAME=CYCLE_0023, NLGEOM=NO, INC=160
*STATIC
0.005, 1.0, 1.0E-08, 0.025
*BOUNDARY, AMPLITUDE=AMP_ONE_CYCLE
RIGHT_EDGE, 1, 1, 0.10
*OUTPUT, HISTORY, FREQUENCY=1
*NODE OUTPUT, NSET=RIGHT_EDGE
U1, RF1
*END STEP
*STEP, NAME=CYCLE_0024, NLGEOM=NO, INC=160
*STATIC
0.005, 1.0, 1.0E-08, 0.025
*BOUNDARY, AMPLITUDE=AMP_ONE_CYCLE
RIGHT_EDGE, 1, 1, 0.10
*OUTPUT, HISTORY, FREQUENCY=1
*NODE OUTPUT, NSET=RIGHT_EDGE
U1, RF1
*END STEP
*STEP, NAME=CYCLE_0025, NLGEOM=NO, INC=160
*STATIC
0.005, 1.0, 1.0E-08, 0.025
*BOUNDARY, AMPLITUDE=AMP_ONE_CYCLE
RIGHT_EDGE, 1, 1, 0.10
*OUTPUT, HISTORY, FREQUENCY=1
*NODE OUTPUT, NSET=RIGHT_EDGE
U1, RF1
*END STEP
*STEP, NAME=CYCLE_0026, NLGEOM=NO, INC=160
*STATIC
0.005, 1.0, 1.0E-08, 0.025
*BOUNDARY, AMPLITUDE=AMP_ONE_CYCLE
RIGHT_EDGE, 1, 1, 0.10
*OUTPUT, HISTORY, FREQUENCY=1
*NODE OUTPUT, NSET=RIGHT_EDGE
U1, RF1
*END STEP
*STEP, NAME=CYCLE_0027, NLGEOM=NO, INC=160
*STATIC
0.005, 1.0, 1.0E-08, 0.025
*BOUNDARY, AMPLITUDE=AMP_ONE_CYCLE
RIGHT_EDGE, 1, 1, 0.10
*OUTPUT, HISTORY, FREQUENCY=1
*NODE OUTPUT, NSET=RIGHT_EDGE
U1, RF1
*END STEP
*STEP, NAME=CYCLE_0028, NLGEOM=NO, INC=160
*STATIC
0.005, 1.0, 1.0E-08, 0.025
*BOUNDARY, AMPLITUDE=AMP_ONE_CYCLE
RIGHT_EDGE, 1, 1, 0.10
*OUTPUT, HISTORY, FREQUENCY=1
*NODE OUTPUT, NSET=RIGHT_EDGE
U1, RF1
*END STEP
*STEP, NAME=CYCLE_0029, NLGEOM=NO, INC=160
*STATIC
0.005, 1.0, 1.0E-08, 0.025
*BOUNDARY, AMPLITUDE=AMP_ONE_CYCLE
RIGHT_EDGE, 1, 1, 0.10
*OUTPUT, HISTORY, FREQUENCY=1
*NODE OUTPUT, NSET=RIGHT_EDGE
U1, RF1
*END STEP
*STEP, NAME=CYCLE_0030, NLGEOM=NO, INC=160
*STATIC
0.005, 1.0, 1.0E-08, 0.025
*BOUNDARY, AMPLITUDE=AMP_ONE_CYCLE
RIGHT_EDGE, 1, 1, 0.10
*OUTPUT, HISTORY, FREQUENCY=1
*NODE OUTPUT, NSET=RIGHT_EDGE
U1, RF1
*END STEP
*STEP, NAME=CYCLE_0031, NLGEOM=NO, INC=160
*STATIC
0.005, 1.0, 1.0E-08, 0.025
*BOUNDARY, AMPLITUDE=AMP_ONE_CYCLE
RIGHT_EDGE, 1, 1, 0.10
*OUTPUT, HISTORY, FREQUENCY=1
*NODE OUTPUT, NSET=RIGHT_EDGE
U1, RF1
*END STEP
*STEP, NAME=CYCLE_0032, NLGEOM=NO, INC=160
*STATIC
0.005, 1.0, 1.0E-08, 0.025
*BOUNDARY, AMPLITUDE=AMP_ONE_CYCLE
RIGHT_EDGE, 1, 1, 0.10
*OUTPUT, HISTORY, FREQUENCY=1
*NODE OUTPUT, NSET=RIGHT_EDGE
U1, RF1
*END STEP
*STEP, NAME=CYCLE_0033, NLGEOM=NO, INC=160
*STATIC
0.005, 1.0, 1.0E-08, 0.025
*BOUNDARY, AMPLITUDE=AMP_ONE_CYCLE
RIGHT_EDGE, 1, 1, 0.10
*OUTPUT, HISTORY, FREQUENCY=1
*NODE OUTPUT, NSET=RIGHT_EDGE
U1, RF1
*END STEP
*STEP, NAME=CYCLE_0034, NLGEOM=NO, INC=160
*STATIC
0.005, 1.0, 1.0E-08, 0.025
*BOUNDARY, AMPLITUDE=AMP_ONE_CYCLE
RIGHT_EDGE, 1, 1, 0.10
*OUTPUT, HISTORY, FREQUENCY=1
*NODE OUTPUT, NSET=RIGHT_EDGE
U1, RF1
*END STEP
*STEP, NAME=CYCLE_0035, NLGEOM=NO, INC=160
*STATIC
0.005, 1.0, 1.0E-08, 0.025
*BOUNDARY, AMPLITUDE=AMP_ONE_CYCLE
RIGHT_EDGE, 1, 1, 0.10
*OUTPUT, HISTORY, FREQUENCY=1
*NODE OUTPUT, NSET=RIGHT_EDGE
U1, RF1
*END STEP
*STEP, NAME=CYCLE_0036, NLGEOM=NO, INC=160
*STATIC
0.005, 1.0, 1.0E-08, 0.025
*BOUNDARY, AMPLITUDE=AMP_ONE_CYCLE
RIGHT_EDGE, 1, 1, 0.10
*OUTPUT, HISTORY, FREQUENCY=1
*NODE OUTPUT, NSET=RIGHT_EDGE
U1, RF1
*END STEP
*STEP, NAME=CYCLE_0037, NLGEOM=NO, INC=160
*STATIC
0.005, 1.0, 1.0E-08, 0.025
*BOUNDARY, AMPLITUDE=AMP_ONE_CYCLE
RIGHT_EDGE, 1, 1, 0.10
*OUTPUT, HISTORY, FREQUENCY=1
*NODE OUTPUT, NSET=RIGHT_EDGE
U1, RF1
*END STEP
*STEP, NAME=CYCLE_0038, NLGEOM=NO, INC=160
*STATIC
0.005, 1.0, 1.0E-08, 0.025
*BOUNDARY, AMPLITUDE=AMP_ONE_CYCLE
RIGHT_EDGE, 1, 1, 0.10
*OUTPUT, HISTORY, FREQUENCY=1
*NODE OUTPUT, NSET=RIGHT_EDGE
U1, RF1
*END STEP
*STEP, NAME=CYCLE_0039, NLGEOM=NO, INC=160
*STATIC
0.005, 1.0, 1.0E-08, 0.025
*BOUNDARY, AMPLITUDE=AMP_ONE_CYCLE
RIGHT_EDGE, 1, 1, 0.10
*OUTPUT, HISTORY, FREQUENCY=1
*NODE OUTPUT, NSET=RIGHT_EDGE
U1, RF1
*END STEP
*STEP, NAME=CYCLE_0040, NLGEOM=NO, INC=160
*STATIC
0.005, 1.0, 1.0E-08, 0.025
*BOUNDARY, AMPLITUDE=AMP_ONE_CYCLE
RIGHT_EDGE, 1, 1, 0.10
*OUTPUT, HISTORY, FREQUENCY=1
*NODE OUTPUT, NSET=RIGHT_EDGE
U1, RF1
*END STEP
*STEP, NAME=CYCLE_0041, NLGEOM=NO, INC=160
*STATIC
0.005, 1.0, 1.0E-08, 0.025
*BOUNDARY, AMPLITUDE=AMP_ONE_CYCLE
RIGHT_EDGE, 1, 1, 0.10
*OUTPUT, HISTORY, FREQUENCY=1
*NODE OUTPUT, NSET=RIGHT_EDGE
U1, RF1
*END STEP
*STEP, NAME=CYCLE_0042, NLGEOM=NO, INC=160
*STATIC
0.005, 1.0, 1.0E-08, 0.025
*BOUNDARY, AMPLITUDE=AMP_ONE_CYCLE
RIGHT_EDGE, 1, 1, 0.10
*OUTPUT, HISTORY, FREQUENCY=1
*NODE OUTPUT, NSET=RIGHT_EDGE
U1, RF1
*END STEP
*STEP, NAME=CYCLE_0043, NLGEOM=NO, INC=160
*STATIC
0.005, 1.0, 1.0E-08, 0.025
*BOUNDARY, AMPLITUDE=AMP_ONE_CYCLE
RIGHT_EDGE, 1, 1, 0.10
*OUTPUT, HISTORY, FREQUENCY=1
*NODE OUTPUT, NSET=RIGHT_EDGE
U1, RF1
*END STEP
*STEP, NAME=CYCLE_0044, NLGEOM=NO, INC=160
*STATIC
0.005, 1.0, 1.0E-08, 0.025
*BOUNDARY, AMPLITUDE=AMP_ONE_CYCLE
RIGHT_EDGE, 1, 1, 0.10
*OUTPUT, HISTORY, FREQUENCY=1
*NODE OUTPUT, NSET=RIGHT_EDGE
U1, RF1
*END STEP
*STEP, NAME=CYCLE_0045, NLGEOM=NO, INC=160
*STATIC
0.005, 1.0, 1.0E-08, 0.025
*BOUNDARY, AMPLITUDE=AMP_ONE_CYCLE
RIGHT_EDGE, 1, 1, 0.10
*OUTPUT, HISTORY, FREQUENCY=1
*NODE OUTPUT, NSET=RIGHT_EDGE
U1, RF1
*END STEP
*STEP, NAME=CYCLE_0046, NLGEOM=NO, INC=160
*STATIC
0.005, 1.0, 1.0E-08, 0.025
*BOUNDARY, AMPLITUDE=AMP_ONE_CYCLE
RIGHT_EDGE, 1, 1, 0.10
*OUTPUT, HISTORY, FREQUENCY=1
*NODE OUTPUT, NSET=RIGHT_EDGE
U1, RF1
*END STEP
*STEP, NAME=CYCLE_0047, NLGEOM=NO, INC=160
*STATIC
0.005, 1.0, 1.0E-08, 0.025
*BOUNDARY, AMPLITUDE=AMP_ONE_CYCLE
RIGHT_EDGE, 1, 1, 0.10
*OUTPUT, HISTORY, FREQUENCY=1
*NODE OUTPUT, NSET=RIGHT_EDGE
U1, RF1
*END STEP
*STEP, NAME=CYCLE_0048, NLGEOM=NO, INC=160
*STATIC
0.005, 1.0, 1.0E-08, 0.025
*BOUNDARY, AMPLITUDE=AMP_ONE_CYCLE
RIGHT_EDGE, 1, 1, 0.10
*OUTPUT, HISTORY, FREQUENCY=1
*NODE OUTPUT, NSET=RIGHT_EDGE
U1, RF1
*END STEP
*STEP, NAME=CYCLE_0049, NLGEOM=NO, INC=160
*STATIC
0.005, 1.0, 1.0E-08, 0.025
*BOUNDARY, AMPLITUDE=AMP_ONE_CYCLE
RIGHT_EDGE, 1, 1, 0.10
*OUTPUT, HISTORY, FREQUENCY=1
*NODE OUTPUT, NSET=RIGHT_EDGE
U1, RF1
*END STEP
*STEP, NAME=CYCLE_0050, NLGEOM=NO, INC=160
*STATIC
0.005, 1.0, 1.0E-08, 0.025
*BOUNDARY, AMPLITUDE=AMP_ONE_CYCLE
RIGHT_EDGE, 1, 1, 0.10
*OUTPUT, HISTORY, FREQUENCY=1
*NODE OUTPUT, NSET=RIGHT_EDGE
U1, RF1
*OUTPUT, FIELD, NUMBER INTERVAL=4
*NODE OUTPUT
U, RF
*ELEMENT OUTPUT
S, SDV
*END STEP
*STEP, NAME=CYCLE_0051, NLGEOM=NO, INC=160
*STATIC
0.005, 1.0, 1.0E-08, 0.025
*BOUNDARY, AMPLITUDE=AMP_ONE_CYCLE
RIGHT_EDGE, 1, 1, 0.10
*OUTPUT, HISTORY, FREQUENCY=1
*NODE OUTPUT, NSET=RIGHT_EDGE
U1, RF1
*END STEP
*STEP, NAME=CYCLE_0052, NLGEOM=NO, INC=160
*STATIC
0.005, 1.0, 1.0E-08, 0.025
*BOUNDARY, AMPLITUDE=AMP_ONE_CYCLE
RIGHT_EDGE, 1, 1, 0.10
*OUTPUT, HISTORY, FREQUENCY=1
*NODE OUTPUT, NSET=RIGHT_EDGE
U1, RF1
*END STEP
*STEP, NAME=CYCLE_0053, NLGEOM=NO, INC=160
*STATIC
0.005, 1.0, 1.0E-08, 0.025
*BOUNDARY, AMPLITUDE=AMP_ONE_CYCLE
RIGHT_EDGE, 1, 1, 0.10
*OUTPUT, HISTORY, FREQUENCY=1
*NODE OUTPUT, NSET=RIGHT_EDGE
U1, RF1
*END STEP
*STEP, NAME=CYCLE_0054, NLGEOM=NO, INC=160
*STATIC
0.005, 1.0, 1.0E-08, 0.025
*BOUNDARY, AMPLITUDE=AMP_ONE_CYCLE
RIGHT_EDGE, 1, 1, 0.10
*OUTPUT, HISTORY, FREQUENCY=1
*NODE OUTPUT, NSET=RIGHT_EDGE
U1, RF1
*END STEP
*STEP, NAME=CYCLE_0055, NLGEOM=NO, INC=160
*STATIC
0.005, 1.0, 1.0E-08, 0.025
*BOUNDARY, AMPLITUDE=AMP_ONE_CYCLE
RIGHT_EDGE, 1, 1, 0.10
*OUTPUT, HISTORY, FREQUENCY=1
*NODE OUTPUT, NSET=RIGHT_EDGE
U1, RF1
*END STEP
*STEP, NAME=CYCLE_0056, NLGEOM=NO, INC=160
*STATIC
0.005, 1.0, 1.0E-08, 0.025
*BOUNDARY, AMPLITUDE=AMP_ONE_CYCLE
RIGHT_EDGE, 1, 1, 0.10
*OUTPUT, HISTORY, FREQUENCY=1
*NODE OUTPUT, NSET=RIGHT_EDGE
U1, RF1
*END STEP
*STEP, NAME=CYCLE_0057, NLGEOM=NO, INC=160
*STATIC
0.005, 1.0, 1.0E-08, 0.025
*BOUNDARY, AMPLITUDE=AMP_ONE_CYCLE
RIGHT_EDGE, 1, 1, 0.10
*OUTPUT, HISTORY, FREQUENCY=1
*NODE OUTPUT, NSET=RIGHT_EDGE
U1, RF1
*END STEP
*STEP, NAME=CYCLE_0058, NLGEOM=NO, INC=160
*STATIC
0.005, 1.0, 1.0E-08, 0.025
*BOUNDARY, AMPLITUDE=AMP_ONE_CYCLE
RIGHT_EDGE, 1, 1, 0.10
*OUTPUT, HISTORY, FREQUENCY=1
*NODE OUTPUT, NSET=RIGHT_EDGE
U1, RF1
*END STEP
*STEP, NAME=CYCLE_0059, NLGEOM=NO, INC=160
*STATIC
0.005, 1.0, 1.0E-08, 0.025
*BOUNDARY, AMPLITUDE=AMP_ONE_CYCLE
RIGHT_EDGE, 1, 1, 0.10
*OUTPUT, HISTORY, FREQUENCY=1
*NODE OUTPUT, NSET=RIGHT_EDGE
U1, RF1
*END STEP
*STEP, NAME=CYCLE_0060, NLGEOM=NO, INC=160
*STATIC
0.005, 1.0, 1.0E-08, 0.025
*BOUNDARY, AMPLITUDE=AMP_ONE_CYCLE
RIGHT_EDGE, 1, 1, 0.10
*OUTPUT, HISTORY, FREQUENCY=1
*NODE OUTPUT, NSET=RIGHT_EDGE
U1, RF1
*END STEP
*STEP, NAME=CYCLE_0061, NLGEOM=NO, INC=160
*STATIC
0.005, 1.0, 1.0E-08, 0.025
*BOUNDARY, AMPLITUDE=AMP_ONE_CYCLE
RIGHT_EDGE, 1, 1, 0.10
*OUTPUT, HISTORY, FREQUENCY=1
*NODE OUTPUT, NSET=RIGHT_EDGE
U1, RF1
*END STEP
*STEP, NAME=CYCLE_0062, NLGEOM=NO, INC=160
*STATIC
0.005, 1.0, 1.0E-08, 0.025
*BOUNDARY, AMPLITUDE=AMP_ONE_CYCLE
RIGHT_EDGE, 1, 1, 0.10
*OUTPUT, HISTORY, FREQUENCY=1
*NODE OUTPUT, NSET=RIGHT_EDGE
U1, RF1
*END STEP
*STEP, NAME=CYCLE_0063, NLGEOM=NO, INC=160
*STATIC
0.005, 1.0, 1.0E-08, 0.025
*BOUNDARY, AMPLITUDE=AMP_ONE_CYCLE
RIGHT_EDGE, 1, 1, 0.10
*OUTPUT, HISTORY, FREQUENCY=1
*NODE OUTPUT, NSET=RIGHT_EDGE
U1, RF1
*END STEP
*STEP, NAME=CYCLE_0064, NLGEOM=NO, INC=160
*STATIC
0.005, 1.0, 1.0E-08, 0.025
*BOUNDARY, AMPLITUDE=AMP_ONE_CYCLE
RIGHT_EDGE, 1, 1, 0.10
*OUTPUT, HISTORY, FREQUENCY=1
*NODE OUTPUT, NSET=RIGHT_EDGE
U1, RF1
*END STEP
*STEP, NAME=CYCLE_0065, NLGEOM=NO, INC=160
*STATIC
0.005, 1.0, 1.0E-08, 0.025
*BOUNDARY, AMPLITUDE=AMP_ONE_CYCLE
RIGHT_EDGE, 1, 1, 0.10
*OUTPUT, HISTORY, FREQUENCY=1
*NODE OUTPUT, NSET=RIGHT_EDGE
U1, RF1
*END STEP
*STEP, NAME=CYCLE_0066, NLGEOM=NO, INC=160
*STATIC
0.005, 1.0, 1.0E-08, 0.025
*BOUNDARY, AMPLITUDE=AMP_ONE_CYCLE
RIGHT_EDGE, 1, 1, 0.10
*OUTPUT, HISTORY, FREQUENCY=1
*NODE OUTPUT, NSET=RIGHT_EDGE
U1, RF1
*END STEP
*STEP, NAME=CYCLE_0067, NLGEOM=NO, INC=160
*STATIC
0.005, 1.0, 1.0E-08, 0.025
*BOUNDARY, AMPLITUDE=AMP_ONE_CYCLE
RIGHT_EDGE, 1, 1, 0.10
*OUTPUT, HISTORY, FREQUENCY=1
*NODE OUTPUT, NSET=RIGHT_EDGE
U1, RF1
*END STEP
*STEP, NAME=CYCLE_0068, NLGEOM=NO, INC=160
*STATIC
0.005, 1.0, 1.0E-08, 0.025
*BOUNDARY, AMPLITUDE=AMP_ONE_CYCLE
RIGHT_EDGE, 1, 1, 0.10
*OUTPUT, HISTORY, FREQUENCY=1
*NODE OUTPUT, NSET=RIGHT_EDGE
U1, RF1
*END STEP
*STEP, NAME=CYCLE_0069, NLGEOM=NO, INC=160
*STATIC
0.005, 1.0, 1.0E-08, 0.025
*BOUNDARY, AMPLITUDE=AMP_ONE_CYCLE
RIGHT_EDGE, 1, 1, 0.10
*OUTPUT, HISTORY, FREQUENCY=1
*NODE OUTPUT, NSET=RIGHT_EDGE
U1, RF1
*END STEP
*STEP, NAME=CYCLE_0070, NLGEOM=NO, INC=160
*STATIC
0.005, 1.0, 1.0E-08, 0.025
*BOUNDARY, AMPLITUDE=AMP_ONE_CYCLE
RIGHT_EDGE, 1, 1, 0.10
*OUTPUT, HISTORY, FREQUENCY=1
*NODE OUTPUT, NSET=RIGHT_EDGE
U1, RF1
*END STEP
*STEP, NAME=CYCLE_0071, NLGEOM=NO, INC=160
*STATIC
0.005, 1.0, 1.0E-08, 0.025
*BOUNDARY, AMPLITUDE=AMP_ONE_CYCLE
RIGHT_EDGE, 1, 1, 0.10
*OUTPUT, HISTORY, FREQUENCY=1
*NODE OUTPUT, NSET=RIGHT_EDGE
U1, RF1
*END STEP
*STEP, NAME=CYCLE_0072, NLGEOM=NO, INC=160
*STATIC
0.005, 1.0, 1.0E-08, 0.025
*BOUNDARY, AMPLITUDE=AMP_ONE_CYCLE
RIGHT_EDGE, 1, 1, 0.10
*OUTPUT, HISTORY, FREQUENCY=1
*NODE OUTPUT, NSET=RIGHT_EDGE
U1, RF1
*END STEP
*STEP, NAME=CYCLE_0073, NLGEOM=NO, INC=160
*STATIC
0.005, 1.0, 1.0E-08, 0.025
*BOUNDARY, AMPLITUDE=AMP_ONE_CYCLE
RIGHT_EDGE, 1, 1, 0.10
*OUTPUT, HISTORY, FREQUENCY=1
*NODE OUTPUT, NSET=RIGHT_EDGE
U1, RF1
*END STEP
*STEP, NAME=CYCLE_0074, NLGEOM=NO, INC=160
*STATIC
0.005, 1.0, 1.0E-08, 0.025
*BOUNDARY, AMPLITUDE=AMP_ONE_CYCLE
RIGHT_EDGE, 1, 1, 0.10
*OUTPUT, HISTORY, FREQUENCY=1
*NODE OUTPUT, NSET=RIGHT_EDGE
U1, RF1
*END STEP
*STEP, NAME=CYCLE_0075, NLGEOM=NO, INC=160
*STATIC
0.005, 1.0, 1.0E-08, 0.025
*BOUNDARY, AMPLITUDE=AMP_ONE_CYCLE
RIGHT_EDGE, 1, 1, 0.10
*OUTPUT, HISTORY, FREQUENCY=1
*NODE OUTPUT, NSET=RIGHT_EDGE
U1, RF1
*END STEP
*STEP, NAME=CYCLE_0076, NLGEOM=NO, INC=160
*STATIC
0.005, 1.0, 1.0E-08, 0.025
*BOUNDARY, AMPLITUDE=AMP_ONE_CYCLE
RIGHT_EDGE, 1, 1, 0.10
*OUTPUT, HISTORY, FREQUENCY=1
*NODE OUTPUT, NSET=RIGHT_EDGE
U1, RF1
*END STEP
*STEP, NAME=CYCLE_0077, NLGEOM=NO, INC=160
*STATIC
0.005, 1.0, 1.0E-08, 0.025
*BOUNDARY, AMPLITUDE=AMP_ONE_CYCLE
RIGHT_EDGE, 1, 1, 0.10
*OUTPUT, HISTORY, FREQUENCY=1
*NODE OUTPUT, NSET=RIGHT_EDGE
U1, RF1
*END STEP
*STEP, NAME=CYCLE_0078, NLGEOM=NO, INC=160
*STATIC
0.005, 1.0, 1.0E-08, 0.025
*BOUNDARY, AMPLITUDE=AMP_ONE_CYCLE
RIGHT_EDGE, 1, 1, 0.10
*OUTPUT, HISTORY, FREQUENCY=1
*NODE OUTPUT, NSET=RIGHT_EDGE
U1, RF1
*END STEP
*STEP, NAME=CYCLE_0079, NLGEOM=NO, INC=160
*STATIC
0.005, 1.0, 1.0E-08, 0.025
*BOUNDARY, AMPLITUDE=AMP_ONE_CYCLE
RIGHT_EDGE, 1, 1, 0.10
*OUTPUT, HISTORY, FREQUENCY=1
*NODE OUTPUT, NSET=RIGHT_EDGE
U1, RF1
*END STEP
*STEP, NAME=CYCLE_0080, NLGEOM=NO, INC=160
*STATIC
0.005, 1.0, 1.0E-08, 0.025
*BOUNDARY, AMPLITUDE=AMP_ONE_CYCLE
RIGHT_EDGE, 1, 1, 0.10
*OUTPUT, HISTORY, FREQUENCY=1
*NODE OUTPUT, NSET=RIGHT_EDGE
U1, RF1
*END STEP
*STEP, NAME=CYCLE_0081, NLGEOM=NO, INC=160
*STATIC
0.005, 1.0, 1.0E-08, 0.025
*BOUNDARY, AMPLITUDE=AMP_ONE_CYCLE
RIGHT_EDGE, 1, 1, 0.10
*OUTPUT, HISTORY, FREQUENCY=1
*NODE OUTPUT, NSET=RIGHT_EDGE
U1, RF1
*END STEP
*STEP, NAME=CYCLE_0082, NLGEOM=NO, INC=160
*STATIC
0.005, 1.0, 1.0E-08, 0.025
*BOUNDARY, AMPLITUDE=AMP_ONE_CYCLE
RIGHT_EDGE, 1, 1, 0.10
*OUTPUT, HISTORY, FREQUENCY=1
*NODE OUTPUT, NSET=RIGHT_EDGE
U1, RF1
*END STEP
*STEP, NAME=CYCLE_0083, NLGEOM=NO, INC=160
*STATIC
0.005, 1.0, 1.0E-08, 0.025
*BOUNDARY, AMPLITUDE=AMP_ONE_CYCLE
RIGHT_EDGE, 1, 1, 0.10
*OUTPUT, HISTORY, FREQUENCY=1
*NODE OUTPUT, NSET=RIGHT_EDGE
U1, RF1
*END STEP
*STEP, NAME=CYCLE_0084, NLGEOM=NO, INC=160
*STATIC
0.005, 1.0, 1.0E-08, 0.025
*BOUNDARY, AMPLITUDE=AMP_ONE_CYCLE
RIGHT_EDGE, 1, 1, 0.10
*OUTPUT, HISTORY, FREQUENCY=1
*NODE OUTPUT, NSET=RIGHT_EDGE
U1, RF1
*END STEP
*STEP, NAME=CYCLE_0085, NLGEOM=NO, INC=160
*STATIC
0.005, 1.0, 1.0E-08, 0.025
*BOUNDARY, AMPLITUDE=AMP_ONE_CYCLE
RIGHT_EDGE, 1, 1, 0.10
*OUTPUT, HISTORY, FREQUENCY=1
*NODE OUTPUT, NSET=RIGHT_EDGE
U1, RF1
*END STEP
*STEP, NAME=CYCLE_0086, NLGEOM=NO, INC=160
*STATIC
0.005, 1.0, 1.0E-08, 0.025
*BOUNDARY, AMPLITUDE=AMP_ONE_CYCLE
RIGHT_EDGE, 1, 1, 0.10
*OUTPUT, HISTORY, FREQUENCY=1
*NODE OUTPUT, NSET=RIGHT_EDGE
U1, RF1
*END STEP
*STEP, NAME=CYCLE_0087, NLGEOM=NO, INC=160
*STATIC
0.005, 1.0, 1.0E-08, 0.025
*BOUNDARY, AMPLITUDE=AMP_ONE_CYCLE
RIGHT_EDGE, 1, 1, 0.10
*OUTPUT, HISTORY, FREQUENCY=1
*NODE OUTPUT, NSET=RIGHT_EDGE
U1, RF1
*END STEP
*STEP, NAME=CYCLE_0088, NLGEOM=NO, INC=160
*STATIC
0.005, 1.0, 1.0E-08, 0.025
*BOUNDARY, AMPLITUDE=AMP_ONE_CYCLE
RIGHT_EDGE, 1, 1, 0.10
*OUTPUT, HISTORY, FREQUENCY=1
*NODE OUTPUT, NSET=RIGHT_EDGE
U1, RF1
*END STEP
*STEP, NAME=CYCLE_0089, NLGEOM=NO, INC=160
*STATIC
0.005, 1.0, 1.0E-08, 0.025
*BOUNDARY, AMPLITUDE=AMP_ONE_CYCLE
RIGHT_EDGE, 1, 1, 0.10
*OUTPUT, HISTORY, FREQUENCY=1
*NODE OUTPUT, NSET=RIGHT_EDGE
U1, RF1
*END STEP
*STEP, NAME=CYCLE_0090, NLGEOM=NO, INC=160
*STATIC
0.005, 1.0, 1.0E-08, 0.025
*BOUNDARY, AMPLITUDE=AMP_ONE_CYCLE
RIGHT_EDGE, 1, 1, 0.10
*OUTPUT, HISTORY, FREQUENCY=1
*NODE OUTPUT, NSET=RIGHT_EDGE
U1, RF1
*END STEP
*STEP, NAME=CYCLE_0091, NLGEOM=NO, INC=160
*STATIC
0.005, 1.0, 1.0E-08, 0.025
*BOUNDARY, AMPLITUDE=AMP_ONE_CYCLE
RIGHT_EDGE, 1, 1, 0.10
*OUTPUT, HISTORY, FREQUENCY=1
*NODE OUTPUT, NSET=RIGHT_EDGE
U1, RF1
*END STEP
*STEP, NAME=CYCLE_0092, NLGEOM=NO, INC=160
*STATIC
0.005, 1.0, 1.0E-08, 0.025
*BOUNDARY, AMPLITUDE=AMP_ONE_CYCLE
RIGHT_EDGE, 1, 1, 0.10
*OUTPUT, HISTORY, FREQUENCY=1
*NODE OUTPUT, NSET=RIGHT_EDGE
U1, RF1
*END STEP
*STEP, NAME=CYCLE_0093, NLGEOM=NO, INC=160
*STATIC
0.005, 1.0, 1.0E-08, 0.025
*BOUNDARY, AMPLITUDE=AMP_ONE_CYCLE
RIGHT_EDGE, 1, 1, 0.10
*OUTPUT, HISTORY, FREQUENCY=1
*NODE OUTPUT, NSET=RIGHT_EDGE
U1, RF1
*END STEP
*STEP, NAME=CYCLE_0094, NLGEOM=NO, INC=160
*STATIC
0.005, 1.0, 1.0E-08, 0.025
*BOUNDARY, AMPLITUDE=AMP_ONE_CYCLE
RIGHT_EDGE, 1, 1, 0.10
*OUTPUT, HISTORY, FREQUENCY=1
*NODE OUTPUT, NSET=RIGHT_EDGE
U1, RF1
*END STEP
*STEP, NAME=CYCLE_0095, NLGEOM=NO, INC=160
*STATIC
0.005, 1.0, 1.0E-08, 0.025
*BOUNDARY, AMPLITUDE=AMP_ONE_CYCLE
RIGHT_EDGE, 1, 1, 0.10
*OUTPUT, HISTORY, FREQUENCY=1
*NODE OUTPUT, NSET=RIGHT_EDGE
U1, RF1
*END STEP
*STEP, NAME=CYCLE_0096, NLGEOM=NO, INC=160
*STATIC
0.005, 1.0, 1.0E-08, 0.025
*BOUNDARY, AMPLITUDE=AMP_ONE_CYCLE
RIGHT_EDGE, 1, 1, 0.10
*OUTPUT, HISTORY, FREQUENCY=1
*NODE OUTPUT, NSET=RIGHT_EDGE
U1, RF1
*END STEP
*STEP, NAME=CYCLE_0097, NLGEOM=NO, INC=160
*STATIC
0.005, 1.0, 1.0E-08, 0.025
*BOUNDARY, AMPLITUDE=AMP_ONE_CYCLE
RIGHT_EDGE, 1, 1, 0.10
*OUTPUT, HISTORY, FREQUENCY=1
*NODE OUTPUT, NSET=RIGHT_EDGE
U1, RF1
*END STEP
*STEP, NAME=CYCLE_0098, NLGEOM=NO, INC=160
*STATIC
0.005, 1.0, 1.0E-08, 0.025
*BOUNDARY, AMPLITUDE=AMP_ONE_CYCLE
RIGHT_EDGE, 1, 1, 0.10
*OUTPUT, HISTORY, FREQUENCY=1
*NODE OUTPUT, NSET=RIGHT_EDGE
U1, RF1
*END STEP
*STEP, NAME=CYCLE_0099, NLGEOM=NO, INC=160
*STATIC
0.005, 1.0, 1.0E-08, 0.025
*BOUNDARY, AMPLITUDE=AMP_ONE_CYCLE
RIGHT_EDGE, 1, 1, 0.10
*OUTPUT, HISTORY, FREQUENCY=1
*NODE OUTPUT, NSET=RIGHT_EDGE
U1, RF1
*END STEP
*STEP, NAME=CYCLE_0100, NLGEOM=NO, INC=160
*STATIC
0.005, 1.0, 1.0E-08, 0.025
*RESTART, WRITE, FREQUENCY=1
*BOUNDARY, AMPLITUDE=AMP_ONE_CYCLE
RIGHT_EDGE, 1, 1, 0.10
*OUTPUT, HISTORY, FREQUENCY=1
*NODE OUTPUT, NSET=RIGHT_EDGE
U1, RF1
*OUTPUT, FIELD, NUMBER INTERVAL=4
*NODE OUTPUT
U, RF
*ELEMENT OUTPUT
S, SDV
*END STEP
*STEP, NAME=CYCLE_0101, NLGEOM=NO, INC=160
*STATIC
0.005, 1.0, 1.0E-08, 0.025
*BOUNDARY, AMPLITUDE=AMP_ONE_CYCLE
RIGHT_EDGE, 1, 1, 0.10
*OUTPUT, HISTORY, FREQUENCY=1
*NODE OUTPUT, NSET=RIGHT_EDGE
U1, RF1
*END STEP
*STEP, NAME=CYCLE_0102, NLGEOM=NO, INC=160
*STATIC
0.005, 1.0, 1.0E-08, 0.025
*BOUNDARY, AMPLITUDE=AMP_ONE_CYCLE
RIGHT_EDGE, 1, 1, 0.10
*OUTPUT, HISTORY, FREQUENCY=1
*NODE OUTPUT, NSET=RIGHT_EDGE
U1, RF1
*END STEP
*STEP, NAME=CYCLE_0103, NLGEOM=NO, INC=160
*STATIC
0.005, 1.0, 1.0E-08, 0.025
*BOUNDARY, AMPLITUDE=AMP_ONE_CYCLE
RIGHT_EDGE, 1, 1, 0.10
*OUTPUT, HISTORY, FREQUENCY=1
*NODE OUTPUT, NSET=RIGHT_EDGE
U1, RF1
*END STEP
*STEP, NAME=CYCLE_0104, NLGEOM=NO, INC=160
*STATIC
0.005, 1.0, 1.0E-08, 0.025
*BOUNDARY, AMPLITUDE=AMP_ONE_CYCLE
RIGHT_EDGE, 1, 1, 0.10
*OUTPUT, HISTORY, FREQUENCY=1
*NODE OUTPUT, NSET=RIGHT_EDGE
U1, RF1
*END STEP
*STEP, NAME=CYCLE_0105, NLGEOM=NO, INC=160
*STATIC
0.005, 1.0, 1.0E-08, 0.025
*BOUNDARY, AMPLITUDE=AMP_ONE_CYCLE
RIGHT_EDGE, 1, 1, 0.10
*OUTPUT, HISTORY, FREQUENCY=1
*NODE OUTPUT, NSET=RIGHT_EDGE
U1, RF1
*END STEP
*STEP, NAME=CYCLE_0106, NLGEOM=NO, INC=160
*STATIC
0.005, 1.0, 1.0E-08, 0.025
*BOUNDARY, AMPLITUDE=AMP_ONE_CYCLE
RIGHT_EDGE, 1, 1, 0.10
*OUTPUT, HISTORY, FREQUENCY=1
*NODE OUTPUT, NSET=RIGHT_EDGE
U1, RF1
*END STEP
*STEP, NAME=CYCLE_0107, NLGEOM=NO, INC=160
*STATIC
0.005, 1.0, 1.0E-08, 0.025
*BOUNDARY, AMPLITUDE=AMP_ONE_CYCLE
RIGHT_EDGE, 1, 1, 0.10
*OUTPUT, HISTORY, FREQUENCY=1
*NODE OUTPUT, NSET=RIGHT_EDGE
U1, RF1
*END STEP
*STEP, NAME=CYCLE_0108, NLGEOM=NO, INC=160
*STATIC
0.005, 1.0, 1.0E-08, 0.025
*BOUNDARY, AMPLITUDE=AMP_ONE_CYCLE
RIGHT_EDGE, 1, 1, 0.10
*OUTPUT, HISTORY, FREQUENCY=1
*NODE OUTPUT, NSET=RIGHT_EDGE
U1, RF1
*END STEP
*STEP, NAME=CYCLE_0109, NLGEOM=NO, INC=160
*STATIC
0.005, 1.0, 1.0E-08, 0.025
*BOUNDARY, AMPLITUDE=AMP_ONE_CYCLE
RIGHT_EDGE, 1, 1, 0.10
*OUTPUT, HISTORY, FREQUENCY=1
*NODE OUTPUT, NSET=RIGHT_EDGE
U1, RF1
*END STEP
*STEP, NAME=CYCLE_0110, NLGEOM=NO, INC=160
*STATIC
0.005, 1.0, 1.0E-08, 0.025
*BOUNDARY, AMPLITUDE=AMP_ONE_CYCLE
RIGHT_EDGE, 1, 1, 0.10
*OUTPUT, HISTORY, FREQUENCY=1
*NODE OUTPUT, NSET=RIGHT_EDGE
U1, RF1
*END STEP
*STEP, NAME=CYCLE_0111, NLGEOM=NO, INC=160
*STATIC
0.005, 1.0, 1.0E-08, 0.025
*BOUNDARY, AMPLITUDE=AMP_ONE_CYCLE
RIGHT_EDGE, 1, 1, 0.10
*OUTPUT, HISTORY, FREQUENCY=1
*NODE OUTPUT, NSET=RIGHT_EDGE
U1, RF1
*END STEP
*STEP, NAME=CYCLE_0112, NLGEOM=NO, INC=160
*STATIC
0.005, 1.0, 1.0E-08, 0.025
*BOUNDARY, AMPLITUDE=AMP_ONE_CYCLE
RIGHT_EDGE, 1, 1, 0.10
*OUTPUT, HISTORY, FREQUENCY=1
*NODE OUTPUT, NSET=RIGHT_EDGE
U1, RF1
*END STEP
*STEP, NAME=CYCLE_0113, NLGEOM=NO, INC=160
*STATIC
0.005, 1.0, 1.0E-08, 0.025
*BOUNDARY, AMPLITUDE=AMP_ONE_CYCLE
RIGHT_EDGE, 1, 1, 0.10
*OUTPUT, HISTORY, FREQUENCY=1
*NODE OUTPUT, NSET=RIGHT_EDGE
U1, RF1
*END STEP
*STEP, NAME=CYCLE_0114, NLGEOM=NO, INC=160
*STATIC
0.005, 1.0, 1.0E-08, 0.025
*BOUNDARY, AMPLITUDE=AMP_ONE_CYCLE
RIGHT_EDGE, 1, 1, 0.10
*OUTPUT, HISTORY, FREQUENCY=1
*NODE OUTPUT, NSET=RIGHT_EDGE
U1, RF1
*END STEP
*STEP, NAME=CYCLE_0115, NLGEOM=NO, INC=160
*STATIC
0.005, 1.0, 1.0E-08, 0.025
*BOUNDARY, AMPLITUDE=AMP_ONE_CYCLE
RIGHT_EDGE, 1, 1, 0.10
*OUTPUT, HISTORY, FREQUENCY=1
*NODE OUTPUT, NSET=RIGHT_EDGE
U1, RF1
*END STEP
*STEP, NAME=CYCLE_0116, NLGEOM=NO, INC=160
*STATIC
0.005, 1.0, 1.0E-08, 0.025
*BOUNDARY, AMPLITUDE=AMP_ONE_CYCLE
RIGHT_EDGE, 1, 1, 0.10
*OUTPUT, HISTORY, FREQUENCY=1
*NODE OUTPUT, NSET=RIGHT_EDGE
U1, RF1
*END STEP
*STEP, NAME=CYCLE_0117, NLGEOM=NO, INC=160
*STATIC
0.005, 1.0, 1.0E-08, 0.025
*BOUNDARY, AMPLITUDE=AMP_ONE_CYCLE
RIGHT_EDGE, 1, 1, 0.10
*OUTPUT, HISTORY, FREQUENCY=1
*NODE OUTPUT, NSET=RIGHT_EDGE
U1, RF1
*END STEP
*STEP, NAME=CYCLE_0118, NLGEOM=NO, INC=160
*STATIC
0.005, 1.0, 1.0E-08, 0.025
*BOUNDARY, AMPLITUDE=AMP_ONE_CYCLE
RIGHT_EDGE, 1, 1, 0.10
*OUTPUT, HISTORY, FREQUENCY=1
*NODE OUTPUT, NSET=RIGHT_EDGE
U1, RF1
*END STEP
*STEP, NAME=CYCLE_0119, NLGEOM=NO, INC=160
*STATIC
0.005, 1.0, 1.0E-08, 0.025
*BOUNDARY, AMPLITUDE=AMP_ONE_CYCLE
RIGHT_EDGE, 1, 1, 0.10
*OUTPUT, HISTORY, FREQUENCY=1
*NODE OUTPUT, NSET=RIGHT_EDGE
U1, RF1
*END STEP
*STEP, NAME=CYCLE_0120, NLGEOM=NO, INC=160
*STATIC
0.005, 1.0, 1.0E-08, 0.025
*BOUNDARY, AMPLITUDE=AMP_ONE_CYCLE
RIGHT_EDGE, 1, 1, 0.10
*OUTPUT, HISTORY, FREQUENCY=1
*NODE OUTPUT, NSET=RIGHT_EDGE
U1, RF1
*END STEP
*STEP, NAME=CYCLE_0121, NLGEOM=NO, INC=160
*STATIC
0.005, 1.0, 1.0E-08, 0.025
*BOUNDARY, AMPLITUDE=AMP_ONE_CYCLE
RIGHT_EDGE, 1, 1, 0.10
*OUTPUT, HISTORY, FREQUENCY=1
*NODE OUTPUT, NSET=RIGHT_EDGE
U1, RF1
*END STEP
*STEP, NAME=CYCLE_0122, NLGEOM=NO, INC=160
*STATIC
0.005, 1.0, 1.0E-08, 0.025
*BOUNDARY, AMPLITUDE=AMP_ONE_CYCLE
RIGHT_EDGE, 1, 1, 0.10
*OUTPUT, HISTORY, FREQUENCY=1
*NODE OUTPUT, NSET=RIGHT_EDGE
U1, RF1
*END STEP
*STEP, NAME=CYCLE_0123, NLGEOM=NO, INC=160
*STATIC
0.005, 1.0, 1.0E-08, 0.025
*BOUNDARY, AMPLITUDE=AMP_ONE_CYCLE
RIGHT_EDGE, 1, 1, 0.10
*OUTPUT, HISTORY, FREQUENCY=1
*NODE OUTPUT, NSET=RIGHT_EDGE
U1, RF1
*END STEP
*STEP, NAME=CYCLE_0124, NLGEOM=NO, INC=160
*STATIC
0.005, 1.0, 1.0E-08, 0.025
*BOUNDARY, AMPLITUDE=AMP_ONE_CYCLE
RIGHT_EDGE, 1, 1, 0.10
*OUTPUT, HISTORY, FREQUENCY=1
*NODE OUTPUT, NSET=RIGHT_EDGE
U1, RF1
*END STEP
*STEP, NAME=CYCLE_0125, NLGEOM=NO, INC=160
*STATIC
0.005, 1.0, 1.0E-08, 0.025
*BOUNDARY, AMPLITUDE=AMP_ONE_CYCLE
RIGHT_EDGE, 1, 1, 0.10
*OUTPUT, HISTORY, FREQUENCY=1
*NODE OUTPUT, NSET=RIGHT_EDGE
U1, RF1
*END STEP
*STEP, NAME=CYCLE_0126, NLGEOM=NO, INC=160
*STATIC
0.005, 1.0, 1.0E-08, 0.025
*BOUNDARY, AMPLITUDE=AMP_ONE_CYCLE
RIGHT_EDGE, 1, 1, 0.10
*OUTPUT, HISTORY, FREQUENCY=1
*NODE OUTPUT, NSET=RIGHT_EDGE
U1, RF1
*END STEP
*STEP, NAME=CYCLE_0127, NLGEOM=NO, INC=160
*STATIC
0.005, 1.0, 1.0E-08, 0.025
*BOUNDARY, AMPLITUDE=AMP_ONE_CYCLE
RIGHT_EDGE, 1, 1, 0.10
*OUTPUT, HISTORY, FREQUENCY=1
*NODE OUTPUT, NSET=RIGHT_EDGE
U1, RF1
*END STEP
*STEP, NAME=CYCLE_0128, NLGEOM=NO, INC=160
*STATIC
0.005, 1.0, 1.0E-08, 0.025
*BOUNDARY, AMPLITUDE=AMP_ONE_CYCLE
RIGHT_EDGE, 1, 1, 0.10
*OUTPUT, HISTORY, FREQUENCY=1
*NODE OUTPUT, NSET=RIGHT_EDGE
U1, RF1
*END STEP
*STEP, NAME=CYCLE_0129, NLGEOM=NO, INC=160
*STATIC
0.005, 1.0, 1.0E-08, 0.025
*BOUNDARY, AMPLITUDE=AMP_ONE_CYCLE
RIGHT_EDGE, 1, 1, 0.10
*OUTPUT, HISTORY, FREQUENCY=1
*NODE OUTPUT, NSET=RIGHT_EDGE
U1, RF1
*END STEP
*STEP, NAME=CYCLE_0130, NLGEOM=NO, INC=160
*STATIC
0.005, 1.0, 1.0E-08, 0.025
*BOUNDARY, AMPLITUDE=AMP_ONE_CYCLE
RIGHT_EDGE, 1, 1, 0.10
*OUTPUT, HISTORY, FREQUENCY=1
*NODE OUTPUT, NSET=RIGHT_EDGE
U1, RF1
*END STEP
*STEP, NAME=CYCLE_0131, NLGEOM=NO, INC=160
*STATIC
0.005, 1.0, 1.0E-08, 0.025
*BOUNDARY, AMPLITUDE=AMP_ONE_CYCLE
RIGHT_EDGE, 1, 1, 0.10
*OUTPUT, HISTORY, FREQUENCY=1
*NODE OUTPUT, NSET=RIGHT_EDGE
U1, RF1
*END STEP
*STEP, NAME=CYCLE_0132, NLGEOM=NO, INC=160
*STATIC
0.005, 1.0, 1.0E-08, 0.025
*BOUNDARY, AMPLITUDE=AMP_ONE_CYCLE
RIGHT_EDGE, 1, 1, 0.10
*OUTPUT, HISTORY, FREQUENCY=1
*NODE OUTPUT, NSET=RIGHT_EDGE
U1, RF1
*END STEP
*STEP, NAME=CYCLE_0133, NLGEOM=NO, INC=160
*STATIC
0.005, 1.0, 1.0E-08, 0.025
*BOUNDARY, AMPLITUDE=AMP_ONE_CYCLE
RIGHT_EDGE, 1, 1, 0.10
*OUTPUT, HISTORY, FREQUENCY=1
*NODE OUTPUT, NSET=RIGHT_EDGE
U1, RF1
*END STEP
*STEP, NAME=CYCLE_0134, NLGEOM=NO, INC=160
*STATIC
0.005, 1.0, 1.0E-08, 0.025
*BOUNDARY, AMPLITUDE=AMP_ONE_CYCLE
RIGHT_EDGE, 1, 1, 0.10
*OUTPUT, HISTORY, FREQUENCY=1
*NODE OUTPUT, NSET=RIGHT_EDGE
U1, RF1
*END STEP
*STEP, NAME=CYCLE_0135, NLGEOM=NO, INC=160
*STATIC
0.005, 1.0, 1.0E-08, 0.025
*BOUNDARY, AMPLITUDE=AMP_ONE_CYCLE
RIGHT_EDGE, 1, 1, 0.10
*OUTPUT, HISTORY, FREQUENCY=1
*NODE OUTPUT, NSET=RIGHT_EDGE
U1, RF1
*END STEP
*STEP, NAME=CYCLE_0136, NLGEOM=NO, INC=160
*STATIC
0.005, 1.0, 1.0E-08, 0.025
*BOUNDARY, AMPLITUDE=AMP_ONE_CYCLE
RIGHT_EDGE, 1, 1, 0.10
*OUTPUT, HISTORY, FREQUENCY=1
*NODE OUTPUT, NSET=RIGHT_EDGE
U1, RF1
*END STEP
*STEP, NAME=CYCLE_0137, NLGEOM=NO, INC=160
*STATIC
0.005, 1.0, 1.0E-08, 0.025
*BOUNDARY, AMPLITUDE=AMP_ONE_CYCLE
RIGHT_EDGE, 1, 1, 0.10
*OUTPUT, HISTORY, FREQUENCY=1
*NODE OUTPUT, NSET=RIGHT_EDGE
U1, RF1
*END STEP
*STEP, NAME=CYCLE_0138, NLGEOM=NO, INC=160
*STATIC
0.005, 1.0, 1.0E-08, 0.025
*BOUNDARY, AMPLITUDE=AMP_ONE_CYCLE
RIGHT_EDGE, 1, 1, 0.10
*OUTPUT, HISTORY, FREQUENCY=1
*NODE OUTPUT, NSET=RIGHT_EDGE
U1, RF1
*END STEP
*STEP, NAME=CYCLE_0139, NLGEOM=NO, INC=160
*STATIC
0.005, 1.0, 1.0E-08, 0.025
*BOUNDARY, AMPLITUDE=AMP_ONE_CYCLE
RIGHT_EDGE, 1, 1, 0.10
*OUTPUT, HISTORY, FREQUENCY=1
*NODE OUTPUT, NSET=RIGHT_EDGE
U1, RF1
*END STEP
*STEP, NAME=CYCLE_0140, NLGEOM=NO, INC=160
*STATIC
0.005, 1.0, 1.0E-08, 0.025
*BOUNDARY, AMPLITUDE=AMP_ONE_CYCLE
RIGHT_EDGE, 1, 1, 0.10
*OUTPUT, HISTORY, FREQUENCY=1
*NODE OUTPUT, NSET=RIGHT_EDGE
U1, RF1
*END STEP
*STEP, NAME=CYCLE_0141, NLGEOM=NO, INC=160
*STATIC
0.005, 1.0, 1.0E-08, 0.025
*BOUNDARY, AMPLITUDE=AMP_ONE_CYCLE
RIGHT_EDGE, 1, 1, 0.10
*OUTPUT, HISTORY, FREQUENCY=1
*NODE OUTPUT, NSET=RIGHT_EDGE
U1, RF1
*END STEP
*STEP, NAME=CYCLE_0142, NLGEOM=NO, INC=160
*STATIC
0.005, 1.0, 1.0E-08, 0.025
*BOUNDARY, AMPLITUDE=AMP_ONE_CYCLE
RIGHT_EDGE, 1, 1, 0.10
*OUTPUT, HISTORY, FREQUENCY=1
*NODE OUTPUT, NSET=RIGHT_EDGE
U1, RF1
*END STEP
*STEP, NAME=CYCLE_0143, NLGEOM=NO, INC=160
*STATIC
0.005, 1.0, 1.0E-08, 0.025
*BOUNDARY, AMPLITUDE=AMP_ONE_CYCLE
RIGHT_EDGE, 1, 1, 0.10
*OUTPUT, HISTORY, FREQUENCY=1
*NODE OUTPUT, NSET=RIGHT_EDGE
U1, RF1
*END STEP
*STEP, NAME=CYCLE_0144, NLGEOM=NO, INC=160
*STATIC
0.005, 1.0, 1.0E-08, 0.025
*BOUNDARY, AMPLITUDE=AMP_ONE_CYCLE
RIGHT_EDGE, 1, 1, 0.10
*OUTPUT, HISTORY, FREQUENCY=1
*NODE OUTPUT, NSET=RIGHT_EDGE
U1, RF1
*END STEP
*STEP, NAME=CYCLE_0145, NLGEOM=NO, INC=160
*STATIC
0.005, 1.0, 1.0E-08, 0.025
*BOUNDARY, AMPLITUDE=AMP_ONE_CYCLE
RIGHT_EDGE, 1, 1, 0.10
*OUTPUT, HISTORY, FREQUENCY=1
*NODE OUTPUT, NSET=RIGHT_EDGE
U1, RF1
*END STEP
*STEP, NAME=CYCLE_0146, NLGEOM=NO, INC=160
*STATIC
0.005, 1.0, 1.0E-08, 0.025
*BOUNDARY, AMPLITUDE=AMP_ONE_CYCLE
RIGHT_EDGE, 1, 1, 0.10
*OUTPUT, HISTORY, FREQUENCY=1
*NODE OUTPUT, NSET=RIGHT_EDGE
U1, RF1
*END STEP
*STEP, NAME=CYCLE_0147, NLGEOM=NO, INC=160
*STATIC
0.005, 1.0, 1.0E-08, 0.025
*BOUNDARY, AMPLITUDE=AMP_ONE_CYCLE
RIGHT_EDGE, 1, 1, 0.10
*OUTPUT, HISTORY, FREQUENCY=1
*NODE OUTPUT, NSET=RIGHT_EDGE
U1, RF1
*END STEP
*STEP, NAME=CYCLE_0148, NLGEOM=NO, INC=160
*STATIC
0.005, 1.0, 1.0E-08, 0.025
*BOUNDARY, AMPLITUDE=AMP_ONE_CYCLE
RIGHT_EDGE, 1, 1, 0.10
*OUTPUT, HISTORY, FREQUENCY=1
*NODE OUTPUT, NSET=RIGHT_EDGE
U1, RF1
*END STEP
*STEP, NAME=CYCLE_0149, NLGEOM=NO, INC=160
*STATIC
0.005, 1.0, 1.0E-08, 0.025
*BOUNDARY, AMPLITUDE=AMP_ONE_CYCLE
RIGHT_EDGE, 1, 1, 0.10
*OUTPUT, HISTORY, FREQUENCY=1
*NODE OUTPUT, NSET=RIGHT_EDGE
U1, RF1
*END STEP
*STEP, NAME=CYCLE_0150, NLGEOM=NO, INC=160
*STATIC
0.005, 1.0, 1.0E-08, 0.025
*BOUNDARY, AMPLITUDE=AMP_ONE_CYCLE
RIGHT_EDGE, 1, 1, 0.10
*OUTPUT, HISTORY, FREQUENCY=1
*NODE OUTPUT, NSET=RIGHT_EDGE
U1, RF1
*END STEP
*STEP, NAME=CYCLE_0151, NLGEOM=NO, INC=160
*STATIC
0.005, 1.0, 1.0E-08, 0.025
*BOUNDARY, AMPLITUDE=AMP_ONE_CYCLE
RIGHT_EDGE, 1, 1, 0.10
*OUTPUT, HISTORY, FREQUENCY=1
*NODE OUTPUT, NSET=RIGHT_EDGE
U1, RF1
*END STEP
*STEP, NAME=CYCLE_0152, NLGEOM=NO, INC=160
*STATIC
0.005, 1.0, 1.0E-08, 0.025
*BOUNDARY, AMPLITUDE=AMP_ONE_CYCLE
RIGHT_EDGE, 1, 1, 0.10
*OUTPUT, HISTORY, FREQUENCY=1
*NODE OUTPUT, NSET=RIGHT_EDGE
U1, RF1
*END STEP
*STEP, NAME=CYCLE_0153, NLGEOM=NO, INC=160
*STATIC
0.005, 1.0, 1.0E-08, 0.025
*BOUNDARY, AMPLITUDE=AMP_ONE_CYCLE
RIGHT_EDGE, 1, 1, 0.10
*OUTPUT, HISTORY, FREQUENCY=1
*NODE OUTPUT, NSET=RIGHT_EDGE
U1, RF1
*END STEP
*STEP, NAME=CYCLE_0154, NLGEOM=NO, INC=160
*STATIC
0.005, 1.0, 1.0E-08, 0.025
*BOUNDARY, AMPLITUDE=AMP_ONE_CYCLE
RIGHT_EDGE, 1, 1, 0.10
*OUTPUT, HISTORY, FREQUENCY=1
*NODE OUTPUT, NSET=RIGHT_EDGE
U1, RF1
*END STEP
*STEP, NAME=CYCLE_0155, NLGEOM=NO, INC=160
*STATIC
0.005, 1.0, 1.0E-08, 0.025
*BOUNDARY, AMPLITUDE=AMP_ONE_CYCLE
RIGHT_EDGE, 1, 1, 0.10
*OUTPUT, HISTORY, FREQUENCY=1
*NODE OUTPUT, NSET=RIGHT_EDGE
U1, RF1
*END STEP
*STEP, NAME=CYCLE_0156, NLGEOM=NO, INC=160
*STATIC
0.005, 1.0, 1.0E-08, 0.025
*BOUNDARY, AMPLITUDE=AMP_ONE_CYCLE
RIGHT_EDGE, 1, 1, 0.10
*OUTPUT, HISTORY, FREQUENCY=1
*NODE OUTPUT, NSET=RIGHT_EDGE
U1, RF1
*END STEP
*STEP, NAME=CYCLE_0157, NLGEOM=NO, INC=160
*STATIC
0.005, 1.0, 1.0E-08, 0.025
*BOUNDARY, AMPLITUDE=AMP_ONE_CYCLE
RIGHT_EDGE, 1, 1, 0.10
*OUTPUT, HISTORY, FREQUENCY=1
*NODE OUTPUT, NSET=RIGHT_EDGE
U1, RF1
*END STEP
*STEP, NAME=CYCLE_0158, NLGEOM=NO, INC=160
*STATIC
0.005, 1.0, 1.0E-08, 0.025
*BOUNDARY, AMPLITUDE=AMP_ONE_CYCLE
RIGHT_EDGE, 1, 1, 0.10
*OUTPUT, HISTORY, FREQUENCY=1
*NODE OUTPUT, NSET=RIGHT_EDGE
U1, RF1
*END STEP
*STEP, NAME=CYCLE_0159, NLGEOM=NO, INC=160
*STATIC
0.005, 1.0, 1.0E-08, 0.025
*BOUNDARY, AMPLITUDE=AMP_ONE_CYCLE
RIGHT_EDGE, 1, 1, 0.10
*OUTPUT, HISTORY, FREQUENCY=1
*NODE OUTPUT, NSET=RIGHT_EDGE
U1, RF1
*END STEP
*STEP, NAME=CYCLE_0160, NLGEOM=NO, INC=160
*STATIC
0.005, 1.0, 1.0E-08, 0.025
*BOUNDARY, AMPLITUDE=AMP_ONE_CYCLE
RIGHT_EDGE, 1, 1, 0.10
*OUTPUT, HISTORY, FREQUENCY=1
*NODE OUTPUT, NSET=RIGHT_EDGE
U1, RF1
*END STEP
*STEP, NAME=CYCLE_0161, NLGEOM=NO, INC=160
*STATIC
0.005, 1.0, 1.0E-08, 0.025
*BOUNDARY, AMPLITUDE=AMP_ONE_CYCLE
RIGHT_EDGE, 1, 1, 0.10
*OUTPUT, HISTORY, FREQUENCY=1
*NODE OUTPUT, NSET=RIGHT_EDGE
U1, RF1
*END STEP
*STEP, NAME=CYCLE_0162, NLGEOM=NO, INC=160
*STATIC
0.005, 1.0, 1.0E-08, 0.025
*BOUNDARY, AMPLITUDE=AMP_ONE_CYCLE
RIGHT_EDGE, 1, 1, 0.10
*OUTPUT, HISTORY, FREQUENCY=1
*NODE OUTPUT, NSET=RIGHT_EDGE
U1, RF1
*END STEP
*STEP, NAME=CYCLE_0163, NLGEOM=NO, INC=160
*STATIC
0.005, 1.0, 1.0E-08, 0.025
*BOUNDARY, AMPLITUDE=AMP_ONE_CYCLE
RIGHT_EDGE, 1, 1, 0.10
*OUTPUT, HISTORY, FREQUENCY=1
*NODE OUTPUT, NSET=RIGHT_EDGE
U1, RF1
*END STEP
*STEP, NAME=CYCLE_0164, NLGEOM=NO, INC=160
*STATIC
0.005, 1.0, 1.0E-08, 0.025
*BOUNDARY, AMPLITUDE=AMP_ONE_CYCLE
RIGHT_EDGE, 1, 1, 0.10
*OUTPUT, HISTORY, FREQUENCY=1
*NODE OUTPUT, NSET=RIGHT_EDGE
U1, RF1
*END STEP
*STEP, NAME=CYCLE_0165, NLGEOM=NO, INC=160
*STATIC
0.005, 1.0, 1.0E-08, 0.025
*BOUNDARY, AMPLITUDE=AMP_ONE_CYCLE
RIGHT_EDGE, 1, 1, 0.10
*OUTPUT, HISTORY, FREQUENCY=1
*NODE OUTPUT, NSET=RIGHT_EDGE
U1, RF1
*END STEP
*STEP, NAME=CYCLE_0166, NLGEOM=NO, INC=160
*STATIC
0.005, 1.0, 1.0E-08, 0.025
*BOUNDARY, AMPLITUDE=AMP_ONE_CYCLE
RIGHT_EDGE, 1, 1, 0.10
*OUTPUT, HISTORY, FREQUENCY=1
*NODE OUTPUT, NSET=RIGHT_EDGE
U1, RF1
*END STEP
*STEP, NAME=CYCLE_0167, NLGEOM=NO, INC=160
*STATIC
0.005, 1.0, 1.0E-08, 0.025
*BOUNDARY, AMPLITUDE=AMP_ONE_CYCLE
RIGHT_EDGE, 1, 1, 0.10
*OUTPUT, HISTORY, FREQUENCY=1
*NODE OUTPUT, NSET=RIGHT_EDGE
U1, RF1
*END STEP
*STEP, NAME=CYCLE_0168, NLGEOM=NO, INC=160
*STATIC
0.005, 1.0, 1.0E-08, 0.025
*BOUNDARY, AMPLITUDE=AMP_ONE_CYCLE
RIGHT_EDGE, 1, 1, 0.10
*OUTPUT, HISTORY, FREQUENCY=1
*NODE OUTPUT, NSET=RIGHT_EDGE
U1, RF1
*END STEP
*STEP, NAME=CYCLE_0169, NLGEOM=NO, INC=160
*STATIC
0.005, 1.0, 1.0E-08, 0.025
*BOUNDARY, AMPLITUDE=AMP_ONE_CYCLE
RIGHT_EDGE, 1, 1, 0.10
*OUTPUT, HISTORY, FREQUENCY=1
*NODE OUTPUT, NSET=RIGHT_EDGE
U1, RF1
*END STEP
*STEP, NAME=CYCLE_0170, NLGEOM=NO, INC=160
*STATIC
0.005, 1.0, 1.0E-08, 0.025
*BOUNDARY, AMPLITUDE=AMP_ONE_CYCLE
RIGHT_EDGE, 1, 1, 0.10
*OUTPUT, HISTORY, FREQUENCY=1
*NODE OUTPUT, NSET=RIGHT_EDGE
U1, RF1
*END STEP
*STEP, NAME=CYCLE_0171, NLGEOM=NO, INC=160
*STATIC
0.005, 1.0, 1.0E-08, 0.025
*BOUNDARY, AMPLITUDE=AMP_ONE_CYCLE
RIGHT_EDGE, 1, 1, 0.10
*OUTPUT, HISTORY, FREQUENCY=1
*NODE OUTPUT, NSET=RIGHT_EDGE
U1, RF1
*END STEP
*STEP, NAME=CYCLE_0172, NLGEOM=NO, INC=160
*STATIC
0.005, 1.0, 1.0E-08, 0.025
*BOUNDARY, AMPLITUDE=AMP_ONE_CYCLE
RIGHT_EDGE, 1, 1, 0.10
*OUTPUT, HISTORY, FREQUENCY=1
*NODE OUTPUT, NSET=RIGHT_EDGE
U1, RF1
*END STEP
*STEP, NAME=CYCLE_0173, NLGEOM=NO, INC=160
*STATIC
0.005, 1.0, 1.0E-08, 0.025
*BOUNDARY, AMPLITUDE=AMP_ONE_CYCLE
RIGHT_EDGE, 1, 1, 0.10
*OUTPUT, HISTORY, FREQUENCY=1
*NODE OUTPUT, NSET=RIGHT_EDGE
U1, RF1
*END STEP
*STEP, NAME=CYCLE_0174, NLGEOM=NO, INC=160
*STATIC
0.005, 1.0, 1.0E-08, 0.025
*BOUNDARY, AMPLITUDE=AMP_ONE_CYCLE
RIGHT_EDGE, 1, 1, 0.10
*OUTPUT, HISTORY, FREQUENCY=1
*NODE OUTPUT, NSET=RIGHT_EDGE
U1, RF1
*END STEP
*STEP, NAME=CYCLE_0175, NLGEOM=NO, INC=160
*STATIC
0.005, 1.0, 1.0E-08, 0.025
*BOUNDARY, AMPLITUDE=AMP_ONE_CYCLE
RIGHT_EDGE, 1, 1, 0.10
*OUTPUT, HISTORY, FREQUENCY=1
*NODE OUTPUT, NSET=RIGHT_EDGE
U1, RF1
*END STEP
*STEP, NAME=CYCLE_0176, NLGEOM=NO, INC=160
*STATIC
0.005, 1.0, 1.0E-08, 0.025
*BOUNDARY, AMPLITUDE=AMP_ONE_CYCLE
RIGHT_EDGE, 1, 1, 0.10
*OUTPUT, HISTORY, FREQUENCY=1
*NODE OUTPUT, NSET=RIGHT_EDGE
U1, RF1
*END STEP
*STEP, NAME=CYCLE_0177, NLGEOM=NO, INC=160
*STATIC
0.005, 1.0, 1.0E-08, 0.025
*BOUNDARY, AMPLITUDE=AMP_ONE_CYCLE
RIGHT_EDGE, 1, 1, 0.10
*OUTPUT, HISTORY, FREQUENCY=1
*NODE OUTPUT, NSET=RIGHT_EDGE
U1, RF1
*END STEP
*STEP, NAME=CYCLE_0178, NLGEOM=NO, INC=160
*STATIC
0.005, 1.0, 1.0E-08, 0.025
*BOUNDARY, AMPLITUDE=AMP_ONE_CYCLE
RIGHT_EDGE, 1, 1, 0.10
*OUTPUT, HISTORY, FREQUENCY=1
*NODE OUTPUT, NSET=RIGHT_EDGE
U1, RF1
*END STEP
*STEP, NAME=CYCLE_0179, NLGEOM=NO, INC=160
*STATIC
0.005, 1.0, 1.0E-08, 0.025
*BOUNDARY, AMPLITUDE=AMP_ONE_CYCLE
RIGHT_EDGE, 1, 1, 0.10
*OUTPUT, HISTORY, FREQUENCY=1
*NODE OUTPUT, NSET=RIGHT_EDGE
U1, RF1
*END STEP
*STEP, NAME=CYCLE_0180, NLGEOM=NO, INC=160
*STATIC
0.005, 1.0, 1.0E-08, 0.025
*BOUNDARY, AMPLITUDE=AMP_ONE_CYCLE
RIGHT_EDGE, 1, 1, 0.10
*OUTPUT, HISTORY, FREQUENCY=1
*NODE OUTPUT, NSET=RIGHT_EDGE
U1, RF1
*END STEP
*STEP, NAME=CYCLE_0181, NLGEOM=NO, INC=160
*STATIC
0.005, 1.0, 1.0E-08, 0.025
*BOUNDARY, AMPLITUDE=AMP_ONE_CYCLE
RIGHT_EDGE, 1, 1, 0.10
*OUTPUT, HISTORY, FREQUENCY=1
*NODE OUTPUT, NSET=RIGHT_EDGE
U1, RF1
*END STEP
*STEP, NAME=CYCLE_0182, NLGEOM=NO, INC=160
*STATIC
0.005, 1.0, 1.0E-08, 0.025
*BOUNDARY, AMPLITUDE=AMP_ONE_CYCLE
RIGHT_EDGE, 1, 1, 0.10
*OUTPUT, HISTORY, FREQUENCY=1
*NODE OUTPUT, NSET=RIGHT_EDGE
U1, RF1
*END STEP
*STEP, NAME=CYCLE_0183, NLGEOM=NO, INC=160
*STATIC
0.005, 1.0, 1.0E-08, 0.025
*BOUNDARY, AMPLITUDE=AMP_ONE_CYCLE
RIGHT_EDGE, 1, 1, 0.10
*OUTPUT, HISTORY, FREQUENCY=1
*NODE OUTPUT, NSET=RIGHT_EDGE
U1, RF1
*END STEP
*STEP, NAME=CYCLE_0184, NLGEOM=NO, INC=160
*STATIC
0.005, 1.0, 1.0E-08, 0.025
*BOUNDARY, AMPLITUDE=AMP_ONE_CYCLE
RIGHT_EDGE, 1, 1, 0.10
*OUTPUT, HISTORY, FREQUENCY=1
*NODE OUTPUT, NSET=RIGHT_EDGE
U1, RF1
*END STEP
*STEP, NAME=CYCLE_0185, NLGEOM=NO, INC=160
*STATIC
0.005, 1.0, 1.0E-08, 0.025
*BOUNDARY, AMPLITUDE=AMP_ONE_CYCLE
RIGHT_EDGE, 1, 1, 0.10
*OUTPUT, HISTORY, FREQUENCY=1
*NODE OUTPUT, NSET=RIGHT_EDGE
U1, RF1
*END STEP
*STEP, NAME=CYCLE_0186, NLGEOM=NO, INC=160
*STATIC
0.005, 1.0, 1.0E-08, 0.025
*BOUNDARY, AMPLITUDE=AMP_ONE_CYCLE
RIGHT_EDGE, 1, 1, 0.10
*OUTPUT, HISTORY, FREQUENCY=1
*NODE OUTPUT, NSET=RIGHT_EDGE
U1, RF1
*END STEP
*STEP, NAME=CYCLE_0187, NLGEOM=NO, INC=160
*STATIC
0.005, 1.0, 1.0E-08, 0.025
*BOUNDARY, AMPLITUDE=AMP_ONE_CYCLE
RIGHT_EDGE, 1, 1, 0.10
*OUTPUT, HISTORY, FREQUENCY=1
*NODE OUTPUT, NSET=RIGHT_EDGE
U1, RF1
*END STEP
*STEP, NAME=CYCLE_0188, NLGEOM=NO, INC=160
*STATIC
0.005, 1.0, 1.0E-08, 0.025
*BOUNDARY, AMPLITUDE=AMP_ONE_CYCLE
RIGHT_EDGE, 1, 1, 0.10
*OUTPUT, HISTORY, FREQUENCY=1
*NODE OUTPUT, NSET=RIGHT_EDGE
U1, RF1
*END STEP
*STEP, NAME=CYCLE_0189, NLGEOM=NO, INC=160
*STATIC
0.005, 1.0, 1.0E-08, 0.025
*BOUNDARY, AMPLITUDE=AMP_ONE_CYCLE
RIGHT_EDGE, 1, 1, 0.10
*OUTPUT, HISTORY, FREQUENCY=1
*NODE OUTPUT, NSET=RIGHT_EDGE
U1, RF1
*END STEP
*STEP, NAME=CYCLE_0190, NLGEOM=NO, INC=160
*STATIC
0.005, 1.0, 1.0E-08, 0.025
*BOUNDARY, AMPLITUDE=AMP_ONE_CYCLE
RIGHT_EDGE, 1, 1, 0.10
*OUTPUT, HISTORY, FREQUENCY=1
*NODE OUTPUT, NSET=RIGHT_EDGE
U1, RF1
*END STEP
*STEP, NAME=CYCLE_0191, NLGEOM=NO, INC=160
*STATIC
0.005, 1.0, 1.0E-08, 0.025
*BOUNDARY, AMPLITUDE=AMP_ONE_CYCLE
RIGHT_EDGE, 1, 1, 0.10
*OUTPUT, HISTORY, FREQUENCY=1
*NODE OUTPUT, NSET=RIGHT_EDGE
U1, RF1
*END STEP
*STEP, NAME=CYCLE_0192, NLGEOM=NO, INC=160
*STATIC
0.005, 1.0, 1.0E-08, 0.025
*BOUNDARY, AMPLITUDE=AMP_ONE_CYCLE
RIGHT_EDGE, 1, 1, 0.10
*OUTPUT, HISTORY, FREQUENCY=1
*NODE OUTPUT, NSET=RIGHT_EDGE
U1, RF1
*END STEP
*STEP, NAME=CYCLE_0193, NLGEOM=NO, INC=160
*STATIC
0.005, 1.0, 1.0E-08, 0.025
*BOUNDARY, AMPLITUDE=AMP_ONE_CYCLE
RIGHT_EDGE, 1, 1, 0.10
*OUTPUT, HISTORY, FREQUENCY=1
*NODE OUTPUT, NSET=RIGHT_EDGE
U1, RF1
*END STEP
*STEP, NAME=CYCLE_0194, NLGEOM=NO, INC=160
*STATIC
0.005, 1.0, 1.0E-08, 0.025
*BOUNDARY, AMPLITUDE=AMP_ONE_CYCLE
RIGHT_EDGE, 1, 1, 0.10
*OUTPUT, HISTORY, FREQUENCY=1
*NODE OUTPUT, NSET=RIGHT_EDGE
U1, RF1
*END STEP
*STEP, NAME=CYCLE_0195, NLGEOM=NO, INC=160
*STATIC
0.005, 1.0, 1.0E-08, 0.025
*BOUNDARY, AMPLITUDE=AMP_ONE_CYCLE
RIGHT_EDGE, 1, 1, 0.10
*OUTPUT, HISTORY, FREQUENCY=1
*NODE OUTPUT, NSET=RIGHT_EDGE
U1, RF1
*END STEP
*STEP, NAME=CYCLE_0196, NLGEOM=NO, INC=160
*STATIC
0.005, 1.0, 1.0E-08, 0.025
*BOUNDARY, AMPLITUDE=AMP_ONE_CYCLE
RIGHT_EDGE, 1, 1, 0.10
*OUTPUT, HISTORY, FREQUENCY=1
*NODE OUTPUT, NSET=RIGHT_EDGE
U1, RF1
*END STEP
*STEP, NAME=CYCLE_0197, NLGEOM=NO, INC=160
*STATIC
0.005, 1.0, 1.0E-08, 0.025
*BOUNDARY, AMPLITUDE=AMP_ONE_CYCLE
RIGHT_EDGE, 1, 1, 0.10
*OUTPUT, HISTORY, FREQUENCY=1
*NODE OUTPUT, NSET=RIGHT_EDGE
U1, RF1
*END STEP
*STEP, NAME=CYCLE_0198, NLGEOM=NO, INC=160
*STATIC
0.005, 1.0, 1.0E-08, 0.025
*BOUNDARY, AMPLITUDE=AMP_ONE_CYCLE
RIGHT_EDGE, 1, 1, 0.10
*OUTPUT, HISTORY, FREQUENCY=1
*NODE OUTPUT, NSET=RIGHT_EDGE
U1, RF1
*END STEP
*STEP, NAME=CYCLE_0199, NLGEOM=NO, INC=160
*STATIC
0.005, 1.0, 1.0E-08, 0.025
*BOUNDARY, AMPLITUDE=AMP_ONE_CYCLE
RIGHT_EDGE, 1, 1, 0.10
*OUTPUT, HISTORY, FREQUENCY=1
*NODE OUTPUT, NSET=RIGHT_EDGE
U1, RF1
*END STEP
*STEP, NAME=CYCLE_0200, NLGEOM=NO, INC=160
*STATIC
0.005, 1.0, 1.0E-08, 0.025
*BOUNDARY, AMPLITUDE=AMP_ONE_CYCLE
RIGHT_EDGE, 1, 1, 0.10
*OUTPUT, HISTORY, FREQUENCY=1
*NODE OUTPUT, NSET=RIGHT_EDGE
U1, RF1
*END STEP
*STEP, NAME=CYCLE_0201, NLGEOM=NO, INC=160
*STATIC
0.005, 1.0, 1.0E-08, 0.025
*BOUNDARY, AMPLITUDE=AMP_ONE_CYCLE
RIGHT_EDGE, 1, 1, 0.10
*OUTPUT, HISTORY, FREQUENCY=1
*NODE OUTPUT, NSET=RIGHT_EDGE
U1, RF1
*END STEP
*STEP, NAME=CYCLE_0202, NLGEOM=NO, INC=160
*STATIC
0.005, 1.0, 1.0E-08, 0.025
*BOUNDARY, AMPLITUDE=AMP_ONE_CYCLE
RIGHT_EDGE, 1, 1, 0.10
*OUTPUT, HISTORY, FREQUENCY=1
*NODE OUTPUT, NSET=RIGHT_EDGE
U1, RF1
*END STEP
*STEP, NAME=CYCLE_0203, NLGEOM=NO, INC=160
*STATIC
0.005, 1.0, 1.0E-08, 0.025
*BOUNDARY, AMPLITUDE=AMP_ONE_CYCLE
RIGHT_EDGE, 1, 1, 0.10
*OUTPUT, HISTORY, FREQUENCY=1
*NODE OUTPUT, NSET=RIGHT_EDGE
U1, RF1
*END STEP
*STEP, NAME=CYCLE_0204, NLGEOM=NO, INC=160
*STATIC
0.005, 1.0, 1.0E-08, 0.025
*BOUNDARY, AMPLITUDE=AMP_ONE_CYCLE
RIGHT_EDGE, 1, 1, 0.10
*OUTPUT, HISTORY, FREQUENCY=1
*NODE OUTPUT, NSET=RIGHT_EDGE
U1, RF1
*END STEP
*STEP, NAME=CYCLE_0205, NLGEOM=NO, INC=160
*STATIC
0.005, 1.0, 1.0E-08, 0.025
*BOUNDARY, AMPLITUDE=AMP_ONE_CYCLE
RIGHT_EDGE, 1, 1, 0.10
*OUTPUT, HISTORY, FREQUENCY=1
*NODE OUTPUT, NSET=RIGHT_EDGE
U1, RF1
*END STEP
*STEP, NAME=CYCLE_0206, NLGEOM=NO, INC=160
*STATIC
0.005, 1.0, 1.0E-08, 0.025
*BOUNDARY, AMPLITUDE=AMP_ONE_CYCLE
RIGHT_EDGE, 1, 1, 0.10
*OUTPUT, HISTORY, FREQUENCY=1
*NODE OUTPUT, NSET=RIGHT_EDGE
U1, RF1
*END STEP
*STEP, NAME=CYCLE_0207, NLGEOM=NO, INC=160
*STATIC
0.005, 1.0, 1.0E-08, 0.025
*BOUNDARY, AMPLITUDE=AMP_ONE_CYCLE
RIGHT_EDGE, 1, 1, 0.10
*OUTPUT, HISTORY, FREQUENCY=1
*NODE OUTPUT, NSET=RIGHT_EDGE
U1, RF1
*END STEP
*STEP, NAME=CYCLE_0208, NLGEOM=NO, INC=160
*STATIC
0.005, 1.0, 1.0E-08, 0.025
*BOUNDARY, AMPLITUDE=AMP_ONE_CYCLE
RIGHT_EDGE, 1, 1, 0.10
*OUTPUT, HISTORY, FREQUENCY=1
*NODE OUTPUT, NSET=RIGHT_EDGE
U1, RF1
*END STEP
*STEP, NAME=CYCLE_0209, NLGEOM=NO, INC=160
*STATIC
0.005, 1.0, 1.0E-08, 0.025
*BOUNDARY, AMPLITUDE=AMP_ONE_CYCLE
RIGHT_EDGE, 1, 1, 0.10
*OUTPUT, HISTORY, FREQUENCY=1
*NODE OUTPUT, NSET=RIGHT_EDGE
U1, RF1
*END STEP
*STEP, NAME=CYCLE_0210, NLGEOM=NO, INC=160
*STATIC
0.005, 1.0, 1.0E-08, 0.025
*BOUNDARY, AMPLITUDE=AMP_ONE_CYCLE
RIGHT_EDGE, 1, 1, 0.10
*OUTPUT, HISTORY, FREQUENCY=1
*NODE OUTPUT, NSET=RIGHT_EDGE
U1, RF1
*END STEP
*STEP, NAME=CYCLE_0211, NLGEOM=NO, INC=160
*STATIC
0.005, 1.0, 1.0E-08, 0.025
*BOUNDARY, AMPLITUDE=AMP_ONE_CYCLE
RIGHT_EDGE, 1, 1, 0.10
*OUTPUT, HISTORY, FREQUENCY=1
*NODE OUTPUT, NSET=RIGHT_EDGE
U1, RF1
*END STEP
*STEP, NAME=CYCLE_0212, NLGEOM=NO, INC=160
*STATIC
0.005, 1.0, 1.0E-08, 0.025
*BOUNDARY, AMPLITUDE=AMP_ONE_CYCLE
RIGHT_EDGE, 1, 1, 0.10
*OUTPUT, HISTORY, FREQUENCY=1
*NODE OUTPUT, NSET=RIGHT_EDGE
U1, RF1
*END STEP
*STEP, NAME=CYCLE_0213, NLGEOM=NO, INC=160
*STATIC
0.005, 1.0, 1.0E-08, 0.025
*BOUNDARY, AMPLITUDE=AMP_ONE_CYCLE
RIGHT_EDGE, 1, 1, 0.10
*OUTPUT, HISTORY, FREQUENCY=1
*NODE OUTPUT, NSET=RIGHT_EDGE
U1, RF1
*END STEP
*STEP, NAME=CYCLE_0214, NLGEOM=NO, INC=160
*STATIC
0.005, 1.0, 1.0E-08, 0.025
*BOUNDARY, AMPLITUDE=AMP_ONE_CYCLE
RIGHT_EDGE, 1, 1, 0.10
*OUTPUT, HISTORY, FREQUENCY=1
*NODE OUTPUT, NSET=RIGHT_EDGE
U1, RF1
*END STEP
*STEP, NAME=CYCLE_0215, NLGEOM=NO, INC=160
*STATIC
0.005, 1.0, 1.0E-08, 0.025
*BOUNDARY, AMPLITUDE=AMP_ONE_CYCLE
RIGHT_EDGE, 1, 1, 0.10
*OUTPUT, HISTORY, FREQUENCY=1
*NODE OUTPUT, NSET=RIGHT_EDGE
U1, RF1
*END STEP
*STEP, NAME=CYCLE_0216, NLGEOM=NO, INC=160
*STATIC
0.005, 1.0, 1.0E-08, 0.025
*BOUNDARY, AMPLITUDE=AMP_ONE_CYCLE
RIGHT_EDGE, 1, 1, 0.10
*OUTPUT, HISTORY, FREQUENCY=1
*NODE OUTPUT, NSET=RIGHT_EDGE
U1, RF1
*END STEP
*STEP, NAME=CYCLE_0217, NLGEOM=NO, INC=160
*STATIC
0.005, 1.0, 1.0E-08, 0.025
*BOUNDARY, AMPLITUDE=AMP_ONE_CYCLE
RIGHT_EDGE, 1, 1, 0.10
*OUTPUT, HISTORY, FREQUENCY=1
*NODE OUTPUT, NSET=RIGHT_EDGE
U1, RF1
*END STEP
*STEP, NAME=CYCLE_0218, NLGEOM=NO, INC=160
*STATIC
0.005, 1.0, 1.0E-08, 0.025
*BOUNDARY, AMPLITUDE=AMP_ONE_CYCLE
RIGHT_EDGE, 1, 1, 0.10
*OUTPUT, HISTORY, FREQUENCY=1
*NODE OUTPUT, NSET=RIGHT_EDGE
U1, RF1
*END STEP
*STEP, NAME=CYCLE_0219, NLGEOM=NO, INC=160
*STATIC
0.005, 1.0, 1.0E-08, 0.025
*BOUNDARY, AMPLITUDE=AMP_ONE_CYCLE
RIGHT_EDGE, 1, 1, 0.10
*OUTPUT, HISTORY, FREQUENCY=1
*NODE OUTPUT, NSET=RIGHT_EDGE
U1, RF1
*END STEP
*STEP, NAME=CYCLE_0220, NLGEOM=NO, INC=160
*STATIC
0.005, 1.0, 1.0E-08, 0.025
*BOUNDARY, AMPLITUDE=AMP_ONE_CYCLE
RIGHT_EDGE, 1, 1, 0.10
*OUTPUT, HISTORY, FREQUENCY=1
*NODE OUTPUT, NSET=RIGHT_EDGE
U1, RF1
*END STEP
*STEP, NAME=CYCLE_0221, NLGEOM=NO, INC=160
*STATIC
0.005, 1.0, 1.0E-08, 0.025
*BOUNDARY, AMPLITUDE=AMP_ONE_CYCLE
RIGHT_EDGE, 1, 1, 0.10
*OUTPUT, HISTORY, FREQUENCY=1
*NODE OUTPUT, NSET=RIGHT_EDGE
U1, RF1
*END STEP
*STEP, NAME=CYCLE_0222, NLGEOM=NO, INC=160
*STATIC
0.005, 1.0, 1.0E-08, 0.025
*BOUNDARY, AMPLITUDE=AMP_ONE_CYCLE
RIGHT_EDGE, 1, 1, 0.10
*OUTPUT, HISTORY, FREQUENCY=1
*NODE OUTPUT, NSET=RIGHT_EDGE
U1, RF1
*END STEP
*STEP, NAME=CYCLE_0223, NLGEOM=NO, INC=160
*STATIC
0.005, 1.0, 1.0E-08, 0.025
*BOUNDARY, AMPLITUDE=AMP_ONE_CYCLE
RIGHT_EDGE, 1, 1, 0.10
*OUTPUT, HISTORY, FREQUENCY=1
*NODE OUTPUT, NSET=RIGHT_EDGE
U1, RF1
*END STEP
*STEP, NAME=CYCLE_0224, NLGEOM=NO, INC=160
*STATIC
0.005, 1.0, 1.0E-08, 0.025
*BOUNDARY, AMPLITUDE=AMP_ONE_CYCLE
RIGHT_EDGE, 1, 1, 0.10
*OUTPUT, HISTORY, FREQUENCY=1
*NODE OUTPUT, NSET=RIGHT_EDGE
U1, RF1
*END STEP
*STEP, NAME=CYCLE_0225, NLGEOM=NO, INC=160
*STATIC
0.005, 1.0, 1.0E-08, 0.025
*BOUNDARY, AMPLITUDE=AMP_ONE_CYCLE
RIGHT_EDGE, 1, 1, 0.10
*OUTPUT, HISTORY, FREQUENCY=1
*NODE OUTPUT, NSET=RIGHT_EDGE
U1, RF1
*END STEP
*STEP, NAME=CYCLE_0226, NLGEOM=NO, INC=160
*STATIC
0.005, 1.0, 1.0E-08, 0.025
*BOUNDARY, AMPLITUDE=AMP_ONE_CYCLE
RIGHT_EDGE, 1, 1, 0.10
*OUTPUT, HISTORY, FREQUENCY=1
*NODE OUTPUT, NSET=RIGHT_EDGE
U1, RF1
*END STEP
*STEP, NAME=CYCLE_0227, NLGEOM=NO, INC=160
*STATIC
0.005, 1.0, 1.0E-08, 0.025
*BOUNDARY, AMPLITUDE=AMP_ONE_CYCLE
RIGHT_EDGE, 1, 1, 0.10
*OUTPUT, HISTORY, FREQUENCY=1
*NODE OUTPUT, NSET=RIGHT_EDGE
U1, RF1
*END STEP
*STEP, NAME=CYCLE_0228, NLGEOM=NO, INC=160
*STATIC
0.005, 1.0, 1.0E-08, 0.025
*BOUNDARY, AMPLITUDE=AMP_ONE_CYCLE
RIGHT_EDGE, 1, 1, 0.10
*OUTPUT, HISTORY, FREQUENCY=1
*NODE OUTPUT, NSET=RIGHT_EDGE
U1, RF1
*END STEP
*STEP, NAME=CYCLE_0229, NLGEOM=NO, INC=160
*STATIC
0.005, 1.0, 1.0E-08, 0.025
*BOUNDARY, AMPLITUDE=AMP_ONE_CYCLE
RIGHT_EDGE, 1, 1, 0.10
*OUTPUT, HISTORY, FREQUENCY=1
*NODE OUTPUT, NSET=RIGHT_EDGE
U1, RF1
*END STEP
*STEP, NAME=CYCLE_0230, NLGEOM=NO, INC=160
*STATIC
0.005, 1.0, 1.0E-08, 0.025
*BOUNDARY, AMPLITUDE=AMP_ONE_CYCLE
RIGHT_EDGE, 1, 1, 0.10
*OUTPUT, HISTORY, FREQUENCY=1
*NODE OUTPUT, NSET=RIGHT_EDGE
U1, RF1
*END STEP
*STEP, NAME=CYCLE_0231, NLGEOM=NO, INC=160
*STATIC
0.005, 1.0, 1.0E-08, 0.025
*BOUNDARY, AMPLITUDE=AMP_ONE_CYCLE
RIGHT_EDGE, 1, 1, 0.10
*OUTPUT, HISTORY, FREQUENCY=1
*NODE OUTPUT, NSET=RIGHT_EDGE
U1, RF1
*END STEP
*STEP, NAME=CYCLE_0232, NLGEOM=NO, INC=160
*STATIC
0.005, 1.0, 1.0E-08, 0.025
*BOUNDARY, AMPLITUDE=AMP_ONE_CYCLE
RIGHT_EDGE, 1, 1, 0.10
*OUTPUT, HISTORY, FREQUENCY=1
*NODE OUTPUT, NSET=RIGHT_EDGE
U1, RF1
*END STEP
*STEP, NAME=CYCLE_0233, NLGEOM=NO, INC=160
*STATIC
0.005, 1.0, 1.0E-08, 0.025
*BOUNDARY, AMPLITUDE=AMP_ONE_CYCLE
RIGHT_EDGE, 1, 1, 0.10
*OUTPUT, HISTORY, FREQUENCY=1
*NODE OUTPUT, NSET=RIGHT_EDGE
U1, RF1
*END STEP
*STEP, NAME=CYCLE_0234, NLGEOM=NO, INC=160
*STATIC
0.005, 1.0, 1.0E-08, 0.025
*BOUNDARY, AMPLITUDE=AMP_ONE_CYCLE
RIGHT_EDGE, 1, 1, 0.10
*OUTPUT, HISTORY, FREQUENCY=1
*NODE OUTPUT, NSET=RIGHT_EDGE
U1, RF1
*END STEP
*STEP, NAME=CYCLE_0235, NLGEOM=NO, INC=160
*STATIC
0.005, 1.0, 1.0E-08, 0.025
*BOUNDARY, AMPLITUDE=AMP_ONE_CYCLE
RIGHT_EDGE, 1, 1, 0.10
*OUTPUT, HISTORY, FREQUENCY=1
*NODE OUTPUT, NSET=RIGHT_EDGE
U1, RF1
*END STEP
*STEP, NAME=CYCLE_0236, NLGEOM=NO, INC=160
*STATIC
0.005, 1.0, 1.0E-08, 0.025
*BOUNDARY, AMPLITUDE=AMP_ONE_CYCLE
RIGHT_EDGE, 1, 1, 0.10
*OUTPUT, HISTORY, FREQUENCY=1
*NODE OUTPUT, NSET=RIGHT_EDGE
U1, RF1
*END STEP
*STEP, NAME=CYCLE_0237, NLGEOM=NO, INC=160
*STATIC
0.005, 1.0, 1.0E-08, 0.025
*BOUNDARY, AMPLITUDE=AMP_ONE_CYCLE
RIGHT_EDGE, 1, 1, 0.10
*OUTPUT, HISTORY, FREQUENCY=1
*NODE OUTPUT, NSET=RIGHT_EDGE
U1, RF1
*END STEP
*STEP, NAME=CYCLE_0238, NLGEOM=NO, INC=160
*STATIC
0.005, 1.0, 1.0E-08, 0.025
*BOUNDARY, AMPLITUDE=AMP_ONE_CYCLE
RIGHT_EDGE, 1, 1, 0.10
*OUTPUT, HISTORY, FREQUENCY=1
*NODE OUTPUT, NSET=RIGHT_EDGE
U1, RF1
*END STEP
*STEP, NAME=CYCLE_0239, NLGEOM=NO, INC=160
*STATIC
0.005, 1.0, 1.0E-08, 0.025
*BOUNDARY, AMPLITUDE=AMP_ONE_CYCLE
RIGHT_EDGE, 1, 1, 0.10
*OUTPUT, HISTORY, FREQUENCY=1
*NODE OUTPUT, NSET=RIGHT_EDGE
U1, RF1
*END STEP
*STEP, NAME=CYCLE_0240, NLGEOM=NO, INC=160
*STATIC
0.005, 1.0, 1.0E-08, 0.025
*BOUNDARY, AMPLITUDE=AMP_ONE_CYCLE
RIGHT_EDGE, 1, 1, 0.10
*OUTPUT, HISTORY, FREQUENCY=1
*NODE OUTPUT, NSET=RIGHT_EDGE
U1, RF1
*END STEP
*STEP, NAME=CYCLE_0241, NLGEOM=NO, INC=160
*STATIC
0.005, 1.0, 1.0E-08, 0.025
*BOUNDARY, AMPLITUDE=AMP_ONE_CYCLE
RIGHT_EDGE, 1, 1, 0.10
*OUTPUT, HISTORY, FREQUENCY=1
*NODE OUTPUT, NSET=RIGHT_EDGE
U1, RF1
*END STEP
*STEP, NAME=CYCLE_0242, NLGEOM=NO, INC=160
*STATIC
0.005, 1.0, 1.0E-08, 0.025
*BOUNDARY, AMPLITUDE=AMP_ONE_CYCLE
RIGHT_EDGE, 1, 1, 0.10
*OUTPUT, HISTORY, FREQUENCY=1
*NODE OUTPUT, NSET=RIGHT_EDGE
U1, RF1
*END STEP
*STEP, NAME=CYCLE_0243, NLGEOM=NO, INC=160
*STATIC
0.005, 1.0, 1.0E-08, 0.025
*BOUNDARY, AMPLITUDE=AMP_ONE_CYCLE
RIGHT_EDGE, 1, 1, 0.10
*OUTPUT, HISTORY, FREQUENCY=1
*NODE OUTPUT, NSET=RIGHT_EDGE
U1, RF1
*END STEP
*STEP, NAME=CYCLE_0244, NLGEOM=NO, INC=160
*STATIC
0.005, 1.0, 1.0E-08, 0.025
*BOUNDARY, AMPLITUDE=AMP_ONE_CYCLE
RIGHT_EDGE, 1, 1, 0.10
*OUTPUT, HISTORY, FREQUENCY=1
*NODE OUTPUT, NSET=RIGHT_EDGE
U1, RF1
*END STEP
*STEP, NAME=CYCLE_0245, NLGEOM=NO, INC=160
*STATIC
0.005, 1.0, 1.0E-08, 0.025
*BOUNDARY, AMPLITUDE=AMP_ONE_CYCLE
RIGHT_EDGE, 1, 1, 0.10
*OUTPUT, HISTORY, FREQUENCY=1
*NODE OUTPUT, NSET=RIGHT_EDGE
U1, RF1
*END STEP
*STEP, NAME=CYCLE_0246, NLGEOM=NO, INC=160
*STATIC
0.005, 1.0, 1.0E-08, 0.025
*BOUNDARY, AMPLITUDE=AMP_ONE_CYCLE
RIGHT_EDGE, 1, 1, 0.10
*OUTPUT, HISTORY, FREQUENCY=1
*NODE OUTPUT, NSET=RIGHT_EDGE
U1, RF1
*END STEP
*STEP, NAME=CYCLE_0247, NLGEOM=NO, INC=160
*STATIC
0.005, 1.0, 1.0E-08, 0.025
*BOUNDARY, AMPLITUDE=AMP_ONE_CYCLE
RIGHT_EDGE, 1, 1, 0.10
*OUTPUT, HISTORY, FREQUENCY=1
*NODE OUTPUT, NSET=RIGHT_EDGE
U1, RF1
*END STEP
*STEP, NAME=CYCLE_0248, NLGEOM=NO, INC=160
*STATIC
0.005, 1.0, 1.0E-08, 0.025
*BOUNDARY, AMPLITUDE=AMP_ONE_CYCLE
RIGHT_EDGE, 1, 1, 0.10
*OUTPUT, HISTORY, FREQUENCY=1
*NODE OUTPUT, NSET=RIGHT_EDGE
U1, RF1
*END STEP
*STEP, NAME=CYCLE_0249, NLGEOM=NO, INC=160
*STATIC
0.005, 1.0, 1.0E-08, 0.025
*BOUNDARY, AMPLITUDE=AMP_ONE_CYCLE
RIGHT_EDGE, 1, 1, 0.10
*OUTPUT, HISTORY, FREQUENCY=1
*NODE OUTPUT, NSET=RIGHT_EDGE
U1, RF1
*END STEP
*STEP, NAME=CYCLE_0250, NLGEOM=NO, INC=160
*STATIC
0.005, 1.0, 1.0E-08, 0.025
*RESTART, WRITE, FREQUENCY=1
*BOUNDARY, AMPLITUDE=AMP_ONE_CYCLE
RIGHT_EDGE, 1, 1, 0.10
*OUTPUT, HISTORY, FREQUENCY=1
*NODE OUTPUT, NSET=RIGHT_EDGE
U1, RF1
*OUTPUT, FIELD, NUMBER INTERVAL=4
*NODE OUTPUT
U, RF
*ELEMENT OUTPUT
S, SDV
*END STEP
*STEP, NAME=CYCLE_0251, NLGEOM=NO, INC=160
*STATIC
0.005, 1.0, 1.0E-08, 0.025
*BOUNDARY, AMPLITUDE=AMP_ONE_CYCLE
RIGHT_EDGE, 1, 1, 0.10
*OUTPUT, HISTORY, FREQUENCY=1
*NODE OUTPUT, NSET=RIGHT_EDGE
U1, RF1
*END STEP
*STEP, NAME=CYCLE_0252, NLGEOM=NO, INC=160
*STATIC
0.005, 1.0, 1.0E-08, 0.025
*BOUNDARY, AMPLITUDE=AMP_ONE_CYCLE
RIGHT_EDGE, 1, 1, 0.10
*OUTPUT, HISTORY, FREQUENCY=1
*NODE OUTPUT, NSET=RIGHT_EDGE
U1, RF1
*END STEP
*STEP, NAME=CYCLE_0253, NLGEOM=NO, INC=160
*STATIC
0.005, 1.0, 1.0E-08, 0.025
*BOUNDARY, AMPLITUDE=AMP_ONE_CYCLE
RIGHT_EDGE, 1, 1, 0.10
*OUTPUT, HISTORY, FREQUENCY=1
*NODE OUTPUT, NSET=RIGHT_EDGE
U1, RF1
*END STEP
*STEP, NAME=CYCLE_0254, NLGEOM=NO, INC=160
*STATIC
0.005, 1.0, 1.0E-08, 0.025
*BOUNDARY, AMPLITUDE=AMP_ONE_CYCLE
RIGHT_EDGE, 1, 1, 0.10
*OUTPUT, HISTORY, FREQUENCY=1
*NODE OUTPUT, NSET=RIGHT_EDGE
U1, RF1
*END STEP
*STEP, NAME=CYCLE_0255, NLGEOM=NO, INC=160
*STATIC
0.005, 1.0, 1.0E-08, 0.025
*BOUNDARY, AMPLITUDE=AMP_ONE_CYCLE
RIGHT_EDGE, 1, 1, 0.10
*OUTPUT, HISTORY, FREQUENCY=1
*NODE OUTPUT, NSET=RIGHT_EDGE
U1, RF1
*END STEP
*STEP, NAME=CYCLE_0256, NLGEOM=NO, INC=160
*STATIC
0.005, 1.0, 1.0E-08, 0.025
*BOUNDARY, AMPLITUDE=AMP_ONE_CYCLE
RIGHT_EDGE, 1, 1, 0.10
*OUTPUT, HISTORY, FREQUENCY=1
*NODE OUTPUT, NSET=RIGHT_EDGE
U1, RF1
*END STEP
*STEP, NAME=CYCLE_0257, NLGEOM=NO, INC=160
*STATIC
0.005, 1.0, 1.0E-08, 0.025
*BOUNDARY, AMPLITUDE=AMP_ONE_CYCLE
RIGHT_EDGE, 1, 1, 0.10
*OUTPUT, HISTORY, FREQUENCY=1
*NODE OUTPUT, NSET=RIGHT_EDGE
U1, RF1
*END STEP
*STEP, NAME=CYCLE_0258, NLGEOM=NO, INC=160
*STATIC
0.005, 1.0, 1.0E-08, 0.025
*BOUNDARY, AMPLITUDE=AMP_ONE_CYCLE
RIGHT_EDGE, 1, 1, 0.10
*OUTPUT, HISTORY, FREQUENCY=1
*NODE OUTPUT, NSET=RIGHT_EDGE
U1, RF1
*END STEP
*STEP, NAME=CYCLE_0259, NLGEOM=NO, INC=160
*STATIC
0.005, 1.0, 1.0E-08, 0.025
*BOUNDARY, AMPLITUDE=AMP_ONE_CYCLE
RIGHT_EDGE, 1, 1, 0.10
*OUTPUT, HISTORY, FREQUENCY=1
*NODE OUTPUT, NSET=RIGHT_EDGE
U1, RF1
*END STEP
*STEP, NAME=CYCLE_0260, NLGEOM=NO, INC=160
*STATIC
0.005, 1.0, 1.0E-08, 0.025
*BOUNDARY, AMPLITUDE=AMP_ONE_CYCLE
RIGHT_EDGE, 1, 1, 0.10
*OUTPUT, HISTORY, FREQUENCY=1
*NODE OUTPUT, NSET=RIGHT_EDGE
U1, RF1
*END STEP
*STEP, NAME=CYCLE_0261, NLGEOM=NO, INC=160
*STATIC
0.005, 1.0, 1.0E-08, 0.025
*BOUNDARY, AMPLITUDE=AMP_ONE_CYCLE
RIGHT_EDGE, 1, 1, 0.10
*OUTPUT, HISTORY, FREQUENCY=1
*NODE OUTPUT, NSET=RIGHT_EDGE
U1, RF1
*END STEP
*STEP, NAME=CYCLE_0262, NLGEOM=NO, INC=160
*STATIC
0.005, 1.0, 1.0E-08, 0.025
*BOUNDARY, AMPLITUDE=AMP_ONE_CYCLE
RIGHT_EDGE, 1, 1, 0.10
*OUTPUT, HISTORY, FREQUENCY=1
*NODE OUTPUT, NSET=RIGHT_EDGE
U1, RF1
*END STEP
*STEP, NAME=CYCLE_0263, NLGEOM=NO, INC=160
*STATIC
0.005, 1.0, 1.0E-08, 0.025
*BOUNDARY, AMPLITUDE=AMP_ONE_CYCLE
RIGHT_EDGE, 1, 1, 0.10
*OUTPUT, HISTORY, FREQUENCY=1
*NODE OUTPUT, NSET=RIGHT_EDGE
U1, RF1
*END STEP
*STEP, NAME=CYCLE_0264, NLGEOM=NO, INC=160
*STATIC
0.005, 1.0, 1.0E-08, 0.025
*BOUNDARY, AMPLITUDE=AMP_ONE_CYCLE
RIGHT_EDGE, 1, 1, 0.10
*OUTPUT, HISTORY, FREQUENCY=1
*NODE OUTPUT, NSET=RIGHT_EDGE
U1, RF1
*END STEP
*STEP, NAME=CYCLE_0265, NLGEOM=NO, INC=160
*STATIC
0.005, 1.0, 1.0E-08, 0.025
*BOUNDARY, AMPLITUDE=AMP_ONE_CYCLE
RIGHT_EDGE, 1, 1, 0.10
*OUTPUT, HISTORY, FREQUENCY=1
*NODE OUTPUT, NSET=RIGHT_EDGE
U1, RF1
*END STEP
*STEP, NAME=CYCLE_0266, NLGEOM=NO, INC=160
*STATIC
0.005, 1.0, 1.0E-08, 0.025
*BOUNDARY, AMPLITUDE=AMP_ONE_CYCLE
RIGHT_EDGE, 1, 1, 0.10
*OUTPUT, HISTORY, FREQUENCY=1
*NODE OUTPUT, NSET=RIGHT_EDGE
U1, RF1
*END STEP
*STEP, NAME=CYCLE_0267, NLGEOM=NO, INC=160
*STATIC
0.005, 1.0, 1.0E-08, 0.025
*BOUNDARY, AMPLITUDE=AMP_ONE_CYCLE
RIGHT_EDGE, 1, 1, 0.10
*OUTPUT, HISTORY, FREQUENCY=1
*NODE OUTPUT, NSET=RIGHT_EDGE
U1, RF1
*END STEP
*STEP, NAME=CYCLE_0268, NLGEOM=NO, INC=160
*STATIC
0.005, 1.0, 1.0E-08, 0.025
*BOUNDARY, AMPLITUDE=AMP_ONE_CYCLE
RIGHT_EDGE, 1, 1, 0.10
*OUTPUT, HISTORY, FREQUENCY=1
*NODE OUTPUT, NSET=RIGHT_EDGE
U1, RF1
*END STEP
*STEP, NAME=CYCLE_0269, NLGEOM=NO, INC=160
*STATIC
0.005, 1.0, 1.0E-08, 0.025
*BOUNDARY, AMPLITUDE=AMP_ONE_CYCLE
RIGHT_EDGE, 1, 1, 0.10
*OUTPUT, HISTORY, FREQUENCY=1
*NODE OUTPUT, NSET=RIGHT_EDGE
U1, RF1
*END STEP
*STEP, NAME=CYCLE_0270, NLGEOM=NO, INC=160
*STATIC
0.005, 1.0, 1.0E-08, 0.025
*BOUNDARY, AMPLITUDE=AMP_ONE_CYCLE
RIGHT_EDGE, 1, 1, 0.10
*OUTPUT, HISTORY, FREQUENCY=1
*NODE OUTPUT, NSET=RIGHT_EDGE
U1, RF1
*END STEP
*STEP, NAME=CYCLE_0271, NLGEOM=NO, INC=160
*STATIC
0.005, 1.0, 1.0E-08, 0.025
*BOUNDARY, AMPLITUDE=AMP_ONE_CYCLE
RIGHT_EDGE, 1, 1, 0.10
*OUTPUT, HISTORY, FREQUENCY=1
*NODE OUTPUT, NSET=RIGHT_EDGE
U1, RF1
*END STEP
*STEP, NAME=CYCLE_0272, NLGEOM=NO, INC=160
*STATIC
0.005, 1.0, 1.0E-08, 0.025
*BOUNDARY, AMPLITUDE=AMP_ONE_CYCLE
RIGHT_EDGE, 1, 1, 0.10
*OUTPUT, HISTORY, FREQUENCY=1
*NODE OUTPUT, NSET=RIGHT_EDGE
U1, RF1
*END STEP
*STEP, NAME=CYCLE_0273, NLGEOM=NO, INC=160
*STATIC
0.005, 1.0, 1.0E-08, 0.025
*BOUNDARY, AMPLITUDE=AMP_ONE_CYCLE
RIGHT_EDGE, 1, 1, 0.10
*OUTPUT, HISTORY, FREQUENCY=1
*NODE OUTPUT, NSET=RIGHT_EDGE
U1, RF1
*END STEP
*STEP, NAME=CYCLE_0274, NLGEOM=NO, INC=160
*STATIC
0.005, 1.0, 1.0E-08, 0.025
*BOUNDARY, AMPLITUDE=AMP_ONE_CYCLE
RIGHT_EDGE, 1, 1, 0.10
*OUTPUT, HISTORY, FREQUENCY=1
*NODE OUTPUT, NSET=RIGHT_EDGE
U1, RF1
*END STEP
*STEP, NAME=CYCLE_0275, NLGEOM=NO, INC=160
*STATIC
0.005, 1.0, 1.0E-08, 0.025
*BOUNDARY, AMPLITUDE=AMP_ONE_CYCLE
RIGHT_EDGE, 1, 1, 0.10
*OUTPUT, HISTORY, FREQUENCY=1
*NODE OUTPUT, NSET=RIGHT_EDGE
U1, RF1
*END STEP
*STEP, NAME=CYCLE_0276, NLGEOM=NO, INC=160
*STATIC
0.005, 1.0, 1.0E-08, 0.025
*BOUNDARY, AMPLITUDE=AMP_ONE_CYCLE
RIGHT_EDGE, 1, 1, 0.10
*OUTPUT, HISTORY, FREQUENCY=1
*NODE OUTPUT, NSET=RIGHT_EDGE
U1, RF1
*END STEP
*STEP, NAME=CYCLE_0277, NLGEOM=NO, INC=160
*STATIC
0.005, 1.0, 1.0E-08, 0.025
*BOUNDARY, AMPLITUDE=AMP_ONE_CYCLE
RIGHT_EDGE, 1, 1, 0.10
*OUTPUT, HISTORY, FREQUENCY=1
*NODE OUTPUT, NSET=RIGHT_EDGE
U1, RF1
*END STEP
*STEP, NAME=CYCLE_0278, NLGEOM=NO, INC=160
*STATIC
0.005, 1.0, 1.0E-08, 0.025
*BOUNDARY, AMPLITUDE=AMP_ONE_CYCLE
RIGHT_EDGE, 1, 1, 0.10
*OUTPUT, HISTORY, FREQUENCY=1
*NODE OUTPUT, NSET=RIGHT_EDGE
U1, RF1
*END STEP
*STEP, NAME=CYCLE_0279, NLGEOM=NO, INC=160
*STATIC
0.005, 1.0, 1.0E-08, 0.025
*BOUNDARY, AMPLITUDE=AMP_ONE_CYCLE
RIGHT_EDGE, 1, 1, 0.10
*OUTPUT, HISTORY, FREQUENCY=1
*NODE OUTPUT, NSET=RIGHT_EDGE
U1, RF1
*END STEP
*STEP, NAME=CYCLE_0280, NLGEOM=NO, INC=160
*STATIC
0.005, 1.0, 1.0E-08, 0.025
*BOUNDARY, AMPLITUDE=AMP_ONE_CYCLE
RIGHT_EDGE, 1, 1, 0.10
*OUTPUT, HISTORY, FREQUENCY=1
*NODE OUTPUT, NSET=RIGHT_EDGE
U1, RF1
*END STEP
*STEP, NAME=CYCLE_0281, NLGEOM=NO, INC=160
*STATIC
0.005, 1.0, 1.0E-08, 0.025
*BOUNDARY, AMPLITUDE=AMP_ONE_CYCLE
RIGHT_EDGE, 1, 1, 0.10
*OUTPUT, HISTORY, FREQUENCY=1
*NODE OUTPUT, NSET=RIGHT_EDGE
U1, RF1
*END STEP
*STEP, NAME=CYCLE_0282, NLGEOM=NO, INC=160
*STATIC
0.005, 1.0, 1.0E-08, 0.025
*BOUNDARY, AMPLITUDE=AMP_ONE_CYCLE
RIGHT_EDGE, 1, 1, 0.10
*OUTPUT, HISTORY, FREQUENCY=1
*NODE OUTPUT, NSET=RIGHT_EDGE
U1, RF1
*END STEP
*STEP, NAME=CYCLE_0283, NLGEOM=NO, INC=160
*STATIC
0.005, 1.0, 1.0E-08, 0.025
*BOUNDARY, AMPLITUDE=AMP_ONE_CYCLE
RIGHT_EDGE, 1, 1, 0.10
*OUTPUT, HISTORY, FREQUENCY=1
*NODE OUTPUT, NSET=RIGHT_EDGE
U1, RF1
*END STEP
*STEP, NAME=CYCLE_0284, NLGEOM=NO, INC=160
*STATIC
0.005, 1.0, 1.0E-08, 0.025
*BOUNDARY, AMPLITUDE=AMP_ONE_CYCLE
RIGHT_EDGE, 1, 1, 0.10
*OUTPUT, HISTORY, FREQUENCY=1
*NODE OUTPUT, NSET=RIGHT_EDGE
U1, RF1
*END STEP
*STEP, NAME=CYCLE_0285, NLGEOM=NO, INC=160
*STATIC
0.005, 1.0, 1.0E-08, 0.025
*BOUNDARY, AMPLITUDE=AMP_ONE_CYCLE
RIGHT_EDGE, 1, 1, 0.10
*OUTPUT, HISTORY, FREQUENCY=1
*NODE OUTPUT, NSET=RIGHT_EDGE
U1, RF1
*END STEP
*STEP, NAME=CYCLE_0286, NLGEOM=NO, INC=160
*STATIC
0.005, 1.0, 1.0E-08, 0.025
*BOUNDARY, AMPLITUDE=AMP_ONE_CYCLE
RIGHT_EDGE, 1, 1, 0.10
*OUTPUT, HISTORY, FREQUENCY=1
*NODE OUTPUT, NSET=RIGHT_EDGE
U1, RF1
*END STEP
*STEP, NAME=CYCLE_0287, NLGEOM=NO, INC=160
*STATIC
0.005, 1.0, 1.0E-08, 0.025
*BOUNDARY, AMPLITUDE=AMP_ONE_CYCLE
RIGHT_EDGE, 1, 1, 0.10
*OUTPUT, HISTORY, FREQUENCY=1
*NODE OUTPUT, NSET=RIGHT_EDGE
U1, RF1
*END STEP
*STEP, NAME=CYCLE_0288, NLGEOM=NO, INC=160
*STATIC
0.005, 1.0, 1.0E-08, 0.025
*BOUNDARY, AMPLITUDE=AMP_ONE_CYCLE
RIGHT_EDGE, 1, 1, 0.10
*OUTPUT, HISTORY, FREQUENCY=1
*NODE OUTPUT, NSET=RIGHT_EDGE
U1, RF1
*END STEP
*STEP, NAME=CYCLE_0289, NLGEOM=NO, INC=160
*STATIC
0.005, 1.0, 1.0E-08, 0.025
*BOUNDARY, AMPLITUDE=AMP_ONE_CYCLE
RIGHT_EDGE, 1, 1, 0.10
*OUTPUT, HISTORY, FREQUENCY=1
*NODE OUTPUT, NSET=RIGHT_EDGE
U1, RF1
*END STEP
*STEP, NAME=CYCLE_0290, NLGEOM=NO, INC=160
*STATIC
0.005, 1.0, 1.0E-08, 0.025
*BOUNDARY, AMPLITUDE=AMP_ONE_CYCLE
RIGHT_EDGE, 1, 1, 0.10
*OUTPUT, HISTORY, FREQUENCY=1
*NODE OUTPUT, NSET=RIGHT_EDGE
U1, RF1
*END STEP
*STEP, NAME=CYCLE_0291, NLGEOM=NO, INC=160
*STATIC
0.005, 1.0, 1.0E-08, 0.025
*BOUNDARY, AMPLITUDE=AMP_ONE_CYCLE
RIGHT_EDGE, 1, 1, 0.10
*OUTPUT, HISTORY, FREQUENCY=1
*NODE OUTPUT, NSET=RIGHT_EDGE
U1, RF1
*END STEP
*STEP, NAME=CYCLE_0292, NLGEOM=NO, INC=160
*STATIC
0.005, 1.0, 1.0E-08, 0.025
*BOUNDARY, AMPLITUDE=AMP_ONE_CYCLE
RIGHT_EDGE, 1, 1, 0.10
*OUTPUT, HISTORY, FREQUENCY=1
*NODE OUTPUT, NSET=RIGHT_EDGE
U1, RF1
*END STEP
*STEP, NAME=CYCLE_0293, NLGEOM=NO, INC=160
*STATIC
0.005, 1.0, 1.0E-08, 0.025
*BOUNDARY, AMPLITUDE=AMP_ONE_CYCLE
RIGHT_EDGE, 1, 1, 0.10
*OUTPUT, HISTORY, FREQUENCY=1
*NODE OUTPUT, NSET=RIGHT_EDGE
U1, RF1
*END STEP
*STEP, NAME=CYCLE_0294, NLGEOM=NO, INC=160
*STATIC
0.005, 1.0, 1.0E-08, 0.025
*BOUNDARY, AMPLITUDE=AMP_ONE_CYCLE
RIGHT_EDGE, 1, 1, 0.10
*OUTPUT, HISTORY, FREQUENCY=1
*NODE OUTPUT, NSET=RIGHT_EDGE
U1, RF1
*END STEP
*STEP, NAME=CYCLE_0295, NLGEOM=NO, INC=160
*STATIC
0.005, 1.0, 1.0E-08, 0.025
*BOUNDARY, AMPLITUDE=AMP_ONE_CYCLE
RIGHT_EDGE, 1, 1, 0.10
*OUTPUT, HISTORY, FREQUENCY=1
*NODE OUTPUT, NSET=RIGHT_EDGE
U1, RF1
*END STEP
*STEP, NAME=CYCLE_0296, NLGEOM=NO, INC=160
*STATIC
0.005, 1.0, 1.0E-08, 0.025
*BOUNDARY, AMPLITUDE=AMP_ONE_CYCLE
RIGHT_EDGE, 1, 1, 0.10
*OUTPUT, HISTORY, FREQUENCY=1
*NODE OUTPUT, NSET=RIGHT_EDGE
U1, RF1
*END STEP
*STEP, NAME=CYCLE_0297, NLGEOM=NO, INC=160
*STATIC
0.005, 1.0, 1.0E-08, 0.025
*BOUNDARY, AMPLITUDE=AMP_ONE_CYCLE
RIGHT_EDGE, 1, 1, 0.10
*OUTPUT, HISTORY, FREQUENCY=1
*NODE OUTPUT, NSET=RIGHT_EDGE
U1, RF1
*END STEP
*STEP, NAME=CYCLE_0298, NLGEOM=NO, INC=160
*STATIC
0.005, 1.0, 1.0E-08, 0.025
*BOUNDARY, AMPLITUDE=AMP_ONE_CYCLE
RIGHT_EDGE, 1, 1, 0.10
*OUTPUT, HISTORY, FREQUENCY=1
*NODE OUTPUT, NSET=RIGHT_EDGE
U1, RF1
*END STEP
*STEP, NAME=CYCLE_0299, NLGEOM=NO, INC=160
*STATIC
0.005, 1.0, 1.0E-08, 0.025
*BOUNDARY, AMPLITUDE=AMP_ONE_CYCLE
RIGHT_EDGE, 1, 1, 0.10
*OUTPUT, HISTORY, FREQUENCY=1
*NODE OUTPUT, NSET=RIGHT_EDGE
U1, RF1
*END STEP
*STEP, NAME=CYCLE_0300, NLGEOM=NO, INC=160
*STATIC
0.005, 1.0, 1.0E-08, 0.025
*BOUNDARY, AMPLITUDE=AMP_ONE_CYCLE
RIGHT_EDGE, 1, 1, 0.10
*OUTPUT, HISTORY, FREQUENCY=1
*NODE OUTPUT, NSET=RIGHT_EDGE
U1, RF1
*END STEP
*STEP, NAME=CYCLE_0301, NLGEOM=NO, INC=160
*STATIC
0.005, 1.0, 1.0E-08, 0.025
*BOUNDARY, AMPLITUDE=AMP_ONE_CYCLE
RIGHT_EDGE, 1, 1, 0.10
*OUTPUT, HISTORY, FREQUENCY=1
*NODE OUTPUT, NSET=RIGHT_EDGE
U1, RF1
*END STEP
*STEP, NAME=CYCLE_0302, NLGEOM=NO, INC=160
*STATIC
0.005, 1.0, 1.0E-08, 0.025
*BOUNDARY, AMPLITUDE=AMP_ONE_CYCLE
RIGHT_EDGE, 1, 1, 0.10
*OUTPUT, HISTORY, FREQUENCY=1
*NODE OUTPUT, NSET=RIGHT_EDGE
U1, RF1
*END STEP
*STEP, NAME=CYCLE_0303, NLGEOM=NO, INC=160
*STATIC
0.005, 1.0, 1.0E-08, 0.025
*BOUNDARY, AMPLITUDE=AMP_ONE_CYCLE
RIGHT_EDGE, 1, 1, 0.10
*OUTPUT, HISTORY, FREQUENCY=1
*NODE OUTPUT, NSET=RIGHT_EDGE
U1, RF1
*END STEP
*STEP, NAME=CYCLE_0304, NLGEOM=NO, INC=160
*STATIC
0.005, 1.0, 1.0E-08, 0.025
*BOUNDARY, AMPLITUDE=AMP_ONE_CYCLE
RIGHT_EDGE, 1, 1, 0.10
*OUTPUT, HISTORY, FREQUENCY=1
*NODE OUTPUT, NSET=RIGHT_EDGE
U1, RF1
*END STEP
*STEP, NAME=CYCLE_0305, NLGEOM=NO, INC=160
*STATIC
0.005, 1.0, 1.0E-08, 0.025
*BOUNDARY, AMPLITUDE=AMP_ONE_CYCLE
RIGHT_EDGE, 1, 1, 0.10
*OUTPUT, HISTORY, FREQUENCY=1
*NODE OUTPUT, NSET=RIGHT_EDGE
U1, RF1
*END STEP
*STEP, NAME=CYCLE_0306, NLGEOM=NO, INC=160
*STATIC
0.005, 1.0, 1.0E-08, 0.025
*BOUNDARY, AMPLITUDE=AMP_ONE_CYCLE
RIGHT_EDGE, 1, 1, 0.10
*OUTPUT, HISTORY, FREQUENCY=1
*NODE OUTPUT, NSET=RIGHT_EDGE
U1, RF1
*END STEP
*STEP, NAME=CYCLE_0307, NLGEOM=NO, INC=160
*STATIC
0.005, 1.0, 1.0E-08, 0.025
*BOUNDARY, AMPLITUDE=AMP_ONE_CYCLE
RIGHT_EDGE, 1, 1, 0.10
*OUTPUT, HISTORY, FREQUENCY=1
*NODE OUTPUT, NSET=RIGHT_EDGE
U1, RF1
*END STEP
*STEP, NAME=CYCLE_0308, NLGEOM=NO, INC=160
*STATIC
0.005, 1.0, 1.0E-08, 0.025
*BOUNDARY, AMPLITUDE=AMP_ONE_CYCLE
RIGHT_EDGE, 1, 1, 0.10
*OUTPUT, HISTORY, FREQUENCY=1
*NODE OUTPUT, NSET=RIGHT_EDGE
U1, RF1
*END STEP
*STEP, NAME=CYCLE_0309, NLGEOM=NO, INC=160
*STATIC
0.005, 1.0, 1.0E-08, 0.025
*BOUNDARY, AMPLITUDE=AMP_ONE_CYCLE
RIGHT_EDGE, 1, 1, 0.10
*OUTPUT, HISTORY, FREQUENCY=1
*NODE OUTPUT, NSET=RIGHT_EDGE
U1, RF1
*END STEP
*STEP, NAME=CYCLE_0310, NLGEOM=NO, INC=160
*STATIC
0.005, 1.0, 1.0E-08, 0.025
*BOUNDARY, AMPLITUDE=AMP_ONE_CYCLE
RIGHT_EDGE, 1, 1, 0.10
*OUTPUT, HISTORY, FREQUENCY=1
*NODE OUTPUT, NSET=RIGHT_EDGE
U1, RF1
*END STEP
*STEP, NAME=CYCLE_0311, NLGEOM=NO, INC=160
*STATIC
0.005, 1.0, 1.0E-08, 0.025
*BOUNDARY, AMPLITUDE=AMP_ONE_CYCLE
RIGHT_EDGE, 1, 1, 0.10
*OUTPUT, HISTORY, FREQUENCY=1
*NODE OUTPUT, NSET=RIGHT_EDGE
U1, RF1
*END STEP
*STEP, NAME=CYCLE_0312, NLGEOM=NO, INC=160
*STATIC
0.005, 1.0, 1.0E-08, 0.025
*BOUNDARY, AMPLITUDE=AMP_ONE_CYCLE
RIGHT_EDGE, 1, 1, 0.10
*OUTPUT, HISTORY, FREQUENCY=1
*NODE OUTPUT, NSET=RIGHT_EDGE
U1, RF1
*END STEP
*STEP, NAME=CYCLE_0313, NLGEOM=NO, INC=160
*STATIC
0.005, 1.0, 1.0E-08, 0.025
*BOUNDARY, AMPLITUDE=AMP_ONE_CYCLE
RIGHT_EDGE, 1, 1, 0.10
*OUTPUT, HISTORY, FREQUENCY=1
*NODE OUTPUT, NSET=RIGHT_EDGE
U1, RF1
*END STEP
*STEP, NAME=CYCLE_0314, NLGEOM=NO, INC=160
*STATIC
0.005, 1.0, 1.0E-08, 0.025
*BOUNDARY, AMPLITUDE=AMP_ONE_CYCLE
RIGHT_EDGE, 1, 1, 0.10
*OUTPUT, HISTORY, FREQUENCY=1
*NODE OUTPUT, NSET=RIGHT_EDGE
U1, RF1
*END STEP
*STEP, NAME=CYCLE_0315, NLGEOM=NO, INC=160
*STATIC
0.005, 1.0, 1.0E-08, 0.025
*BOUNDARY, AMPLITUDE=AMP_ONE_CYCLE
RIGHT_EDGE, 1, 1, 0.10
*OUTPUT, HISTORY, FREQUENCY=1
*NODE OUTPUT, NSET=RIGHT_EDGE
U1, RF1
*END STEP
*STEP, NAME=CYCLE_0316, NLGEOM=NO, INC=160
*STATIC
0.005, 1.0, 1.0E-08, 0.025
*BOUNDARY, AMPLITUDE=AMP_ONE_CYCLE
RIGHT_EDGE, 1, 1, 0.10
*OUTPUT, HISTORY, FREQUENCY=1
*NODE OUTPUT, NSET=RIGHT_EDGE
U1, RF1
*END STEP
*STEP, NAME=CYCLE_0317, NLGEOM=NO, INC=160
*STATIC
0.005, 1.0, 1.0E-08, 0.025
*BOUNDARY, AMPLITUDE=AMP_ONE_CYCLE
RIGHT_EDGE, 1, 1, 0.10
*OUTPUT, HISTORY, FREQUENCY=1
*NODE OUTPUT, NSET=RIGHT_EDGE
U1, RF1
*END STEP
*STEP, NAME=CYCLE_0318, NLGEOM=NO, INC=160
*STATIC
0.005, 1.0, 1.0E-08, 0.025
*BOUNDARY, AMPLITUDE=AMP_ONE_CYCLE
RIGHT_EDGE, 1, 1, 0.10
*OUTPUT, HISTORY, FREQUENCY=1
*NODE OUTPUT, NSET=RIGHT_EDGE
U1, RF1
*END STEP
*STEP, NAME=CYCLE_0319, NLGEOM=NO, INC=160
*STATIC
0.005, 1.0, 1.0E-08, 0.025
*BOUNDARY, AMPLITUDE=AMP_ONE_CYCLE
RIGHT_EDGE, 1, 1, 0.10
*OUTPUT, HISTORY, FREQUENCY=1
*NODE OUTPUT, NSET=RIGHT_EDGE
U1, RF1
*END STEP
*STEP, NAME=CYCLE_0320, NLGEOM=NO, INC=160
*STATIC
0.005, 1.0, 1.0E-08, 0.025
*BOUNDARY, AMPLITUDE=AMP_ONE_CYCLE
RIGHT_EDGE, 1, 1, 0.10
*OUTPUT, HISTORY, FREQUENCY=1
*NODE OUTPUT, NSET=RIGHT_EDGE
U1, RF1
*END STEP
*STEP, NAME=CYCLE_0321, NLGEOM=NO, INC=160
*STATIC
0.005, 1.0, 1.0E-08, 0.025
*BOUNDARY, AMPLITUDE=AMP_ONE_CYCLE
RIGHT_EDGE, 1, 1, 0.10
*OUTPUT, HISTORY, FREQUENCY=1
*NODE OUTPUT, NSET=RIGHT_EDGE
U1, RF1
*END STEP
*STEP, NAME=CYCLE_0322, NLGEOM=NO, INC=160
*STATIC
0.005, 1.0, 1.0E-08, 0.025
*BOUNDARY, AMPLITUDE=AMP_ONE_CYCLE
RIGHT_EDGE, 1, 1, 0.10
*OUTPUT, HISTORY, FREQUENCY=1
*NODE OUTPUT, NSET=RIGHT_EDGE
U1, RF1
*END STEP
*STEP, NAME=CYCLE_0323, NLGEOM=NO, INC=160
*STATIC
0.005, 1.0, 1.0E-08, 0.025
*BOUNDARY, AMPLITUDE=AMP_ONE_CYCLE
RIGHT_EDGE, 1, 1, 0.10
*OUTPUT, HISTORY, FREQUENCY=1
*NODE OUTPUT, NSET=RIGHT_EDGE
U1, RF1
*END STEP
*STEP, NAME=CYCLE_0324, NLGEOM=NO, INC=160
*STATIC
0.005, 1.0, 1.0E-08, 0.025
*BOUNDARY, AMPLITUDE=AMP_ONE_CYCLE
RIGHT_EDGE, 1, 1, 0.10
*OUTPUT, HISTORY, FREQUENCY=1
*NODE OUTPUT, NSET=RIGHT_EDGE
U1, RF1
*END STEP
*STEP, NAME=CYCLE_0325, NLGEOM=NO, INC=160
*STATIC
0.005, 1.0, 1.0E-08, 0.025
*BOUNDARY, AMPLITUDE=AMP_ONE_CYCLE
RIGHT_EDGE, 1, 1, 0.10
*OUTPUT, HISTORY, FREQUENCY=1
*NODE OUTPUT, NSET=RIGHT_EDGE
U1, RF1
*END STEP
*STEP, NAME=CYCLE_0326, NLGEOM=NO, INC=160
*STATIC
0.005, 1.0, 1.0E-08, 0.025
*BOUNDARY, AMPLITUDE=AMP_ONE_CYCLE
RIGHT_EDGE, 1, 1, 0.10
*OUTPUT, HISTORY, FREQUENCY=1
*NODE OUTPUT, NSET=RIGHT_EDGE
U1, RF1
*END STEP
*STEP, NAME=CYCLE_0327, NLGEOM=NO, INC=160
*STATIC
0.005, 1.0, 1.0E-08, 0.025
*BOUNDARY, AMPLITUDE=AMP_ONE_CYCLE
RIGHT_EDGE, 1, 1, 0.10
*OUTPUT, HISTORY, FREQUENCY=1
*NODE OUTPUT, NSET=RIGHT_EDGE
U1, RF1
*END STEP
*STEP, NAME=CYCLE_0328, NLGEOM=NO, INC=160
*STATIC
0.005, 1.0, 1.0E-08, 0.025
*BOUNDARY, AMPLITUDE=AMP_ONE_CYCLE
RIGHT_EDGE, 1, 1, 0.10
*OUTPUT, HISTORY, FREQUENCY=1
*NODE OUTPUT, NSET=RIGHT_EDGE
U1, RF1
*END STEP
*STEP, NAME=CYCLE_0329, NLGEOM=NO, INC=160
*STATIC
0.005, 1.0, 1.0E-08, 0.025
*BOUNDARY, AMPLITUDE=AMP_ONE_CYCLE
RIGHT_EDGE, 1, 1, 0.10
*OUTPUT, HISTORY, FREQUENCY=1
*NODE OUTPUT, NSET=RIGHT_EDGE
U1, RF1
*END STEP
*STEP, NAME=CYCLE_0330, NLGEOM=NO, INC=160
*STATIC
0.005, 1.0, 1.0E-08, 0.025
*BOUNDARY, AMPLITUDE=AMP_ONE_CYCLE
RIGHT_EDGE, 1, 1, 0.10
*OUTPUT, HISTORY, FREQUENCY=1
*NODE OUTPUT, NSET=RIGHT_EDGE
U1, RF1
*END STEP
*STEP, NAME=CYCLE_0331, NLGEOM=NO, INC=160
*STATIC
0.005, 1.0, 1.0E-08, 0.025
*BOUNDARY, AMPLITUDE=AMP_ONE_CYCLE
RIGHT_EDGE, 1, 1, 0.10
*OUTPUT, HISTORY, FREQUENCY=1
*NODE OUTPUT, NSET=RIGHT_EDGE
U1, RF1
*END STEP
*STEP, NAME=CYCLE_0332, NLGEOM=NO, INC=160
*STATIC
0.005, 1.0, 1.0E-08, 0.025
*BOUNDARY, AMPLITUDE=AMP_ONE_CYCLE
RIGHT_EDGE, 1, 1, 0.10
*OUTPUT, HISTORY, FREQUENCY=1
*NODE OUTPUT, NSET=RIGHT_EDGE
U1, RF1
*END STEP
*STEP, NAME=CYCLE_0333, NLGEOM=NO, INC=160
*STATIC
0.005, 1.0, 1.0E-08, 0.025
*BOUNDARY, AMPLITUDE=AMP_ONE_CYCLE
RIGHT_EDGE, 1, 1, 0.10
*OUTPUT, HISTORY, FREQUENCY=1
*NODE OUTPUT, NSET=RIGHT_EDGE
U1, RF1
*END STEP
*STEP, NAME=CYCLE_0334, NLGEOM=NO, INC=160
*STATIC
0.005, 1.0, 1.0E-08, 0.025
*BOUNDARY, AMPLITUDE=AMP_ONE_CYCLE
RIGHT_EDGE, 1, 1, 0.10
*OUTPUT, HISTORY, FREQUENCY=1
*NODE OUTPUT, NSET=RIGHT_EDGE
U1, RF1
*END STEP
*STEP, NAME=CYCLE_0335, NLGEOM=NO, INC=160
*STATIC
0.005, 1.0, 1.0E-08, 0.025
*BOUNDARY, AMPLITUDE=AMP_ONE_CYCLE
RIGHT_EDGE, 1, 1, 0.10
*OUTPUT, HISTORY, FREQUENCY=1
*NODE OUTPUT, NSET=RIGHT_EDGE
U1, RF1
*END STEP
*STEP, NAME=CYCLE_0336, NLGEOM=NO, INC=160
*STATIC
0.005, 1.0, 1.0E-08, 0.025
*BOUNDARY, AMPLITUDE=AMP_ONE_CYCLE
RIGHT_EDGE, 1, 1, 0.10
*OUTPUT, HISTORY, FREQUENCY=1
*NODE OUTPUT, NSET=RIGHT_EDGE
U1, RF1
*END STEP
*STEP, NAME=CYCLE_0337, NLGEOM=NO, INC=160
*STATIC
0.005, 1.0, 1.0E-08, 0.025
*BOUNDARY, AMPLITUDE=AMP_ONE_CYCLE
RIGHT_EDGE, 1, 1, 0.10
*OUTPUT, HISTORY, FREQUENCY=1
*NODE OUTPUT, NSET=RIGHT_EDGE
U1, RF1
*END STEP
*STEP, NAME=CYCLE_0338, NLGEOM=NO, INC=160
*STATIC
0.005, 1.0, 1.0E-08, 0.025
*BOUNDARY, AMPLITUDE=AMP_ONE_CYCLE
RIGHT_EDGE, 1, 1, 0.10
*OUTPUT, HISTORY, FREQUENCY=1
*NODE OUTPUT, NSET=RIGHT_EDGE
U1, RF1
*END STEP
*STEP, NAME=CYCLE_0339, NLGEOM=NO, INC=160
*STATIC
0.005, 1.0, 1.0E-08, 0.025
*BOUNDARY, AMPLITUDE=AMP_ONE_CYCLE
RIGHT_EDGE, 1, 1, 0.10
*OUTPUT, HISTORY, FREQUENCY=1
*NODE OUTPUT, NSET=RIGHT_EDGE
U1, RF1
*END STEP
*STEP, NAME=CYCLE_0340, NLGEOM=NO, INC=160
*STATIC
0.005, 1.0, 1.0E-08, 0.025
*BOUNDARY, AMPLITUDE=AMP_ONE_CYCLE
RIGHT_EDGE, 1, 1, 0.10
*OUTPUT, HISTORY, FREQUENCY=1
*NODE OUTPUT, NSET=RIGHT_EDGE
U1, RF1
*END STEP
*STEP, NAME=CYCLE_0341, NLGEOM=NO, INC=160
*STATIC
0.005, 1.0, 1.0E-08, 0.025
*BOUNDARY, AMPLITUDE=AMP_ONE_CYCLE
RIGHT_EDGE, 1, 1, 0.10
*OUTPUT, HISTORY, FREQUENCY=1
*NODE OUTPUT, NSET=RIGHT_EDGE
U1, RF1
*END STEP
*STEP, NAME=CYCLE_0342, NLGEOM=NO, INC=160
*STATIC
0.005, 1.0, 1.0E-08, 0.025
*BOUNDARY, AMPLITUDE=AMP_ONE_CYCLE
RIGHT_EDGE, 1, 1, 0.10
*OUTPUT, HISTORY, FREQUENCY=1
*NODE OUTPUT, NSET=RIGHT_EDGE
U1, RF1
*END STEP
*STEP, NAME=CYCLE_0343, NLGEOM=NO, INC=160
*STATIC
0.005, 1.0, 1.0E-08, 0.025
*BOUNDARY, AMPLITUDE=AMP_ONE_CYCLE
RIGHT_EDGE, 1, 1, 0.10
*OUTPUT, HISTORY, FREQUENCY=1
*NODE OUTPUT, NSET=RIGHT_EDGE
U1, RF1
*END STEP
*STEP, NAME=CYCLE_0344, NLGEOM=NO, INC=160
*STATIC
0.005, 1.0, 1.0E-08, 0.025
*BOUNDARY, AMPLITUDE=AMP_ONE_CYCLE
RIGHT_EDGE, 1, 1, 0.10
*OUTPUT, HISTORY, FREQUENCY=1
*NODE OUTPUT, NSET=RIGHT_EDGE
U1, RF1
*END STEP
*STEP, NAME=CYCLE_0345, NLGEOM=NO, INC=160
*STATIC
0.005, 1.0, 1.0E-08, 0.025
*BOUNDARY, AMPLITUDE=AMP_ONE_CYCLE
RIGHT_EDGE, 1, 1, 0.10
*OUTPUT, HISTORY, FREQUENCY=1
*NODE OUTPUT, NSET=RIGHT_EDGE
U1, RF1
*END STEP
*STEP, NAME=CYCLE_0346, NLGEOM=NO, INC=160
*STATIC
0.005, 1.0, 1.0E-08, 0.025
*BOUNDARY, AMPLITUDE=AMP_ONE_CYCLE
RIGHT_EDGE, 1, 1, 0.10
*OUTPUT, HISTORY, FREQUENCY=1
*NODE OUTPUT, NSET=RIGHT_EDGE
U1, RF1
*END STEP
*STEP, NAME=CYCLE_0347, NLGEOM=NO, INC=160
*STATIC
0.005, 1.0, 1.0E-08, 0.025
*BOUNDARY, AMPLITUDE=AMP_ONE_CYCLE
RIGHT_EDGE, 1, 1, 0.10
*OUTPUT, HISTORY, FREQUENCY=1
*NODE OUTPUT, NSET=RIGHT_EDGE
U1, RF1
*END STEP
*STEP, NAME=CYCLE_0348, NLGEOM=NO, INC=160
*STATIC
0.005, 1.0, 1.0E-08, 0.025
*BOUNDARY, AMPLITUDE=AMP_ONE_CYCLE
RIGHT_EDGE, 1, 1, 0.10
*OUTPUT, HISTORY, FREQUENCY=1
*NODE OUTPUT, NSET=RIGHT_EDGE
U1, RF1
*END STEP
*STEP, NAME=CYCLE_0349, NLGEOM=NO, INC=160
*STATIC
0.005, 1.0, 1.0E-08, 0.025
*BOUNDARY, AMPLITUDE=AMP_ONE_CYCLE
RIGHT_EDGE, 1, 1, 0.10
*OUTPUT, HISTORY, FREQUENCY=1
*NODE OUTPUT, NSET=RIGHT_EDGE
U1, RF1
*END STEP
*STEP, NAME=CYCLE_0350, NLGEOM=NO, INC=160
*STATIC
0.005, 1.0, 1.0E-08, 0.025
*BOUNDARY, AMPLITUDE=AMP_ONE_CYCLE
RIGHT_EDGE, 1, 1, 0.10
*OUTPUT, HISTORY, FREQUENCY=1
*NODE OUTPUT, NSET=RIGHT_EDGE
U1, RF1
*END STEP
*STEP, NAME=CYCLE_0351, NLGEOM=NO, INC=160
*STATIC
0.005, 1.0, 1.0E-08, 0.025
*BOUNDARY, AMPLITUDE=AMP_ONE_CYCLE
RIGHT_EDGE, 1, 1, 0.10
*OUTPUT, HISTORY, FREQUENCY=1
*NODE OUTPUT, NSET=RIGHT_EDGE
U1, RF1
*END STEP
*STEP, NAME=CYCLE_0352, NLGEOM=NO, INC=160
*STATIC
0.005, 1.0, 1.0E-08, 0.025
*BOUNDARY, AMPLITUDE=AMP_ONE_CYCLE
RIGHT_EDGE, 1, 1, 0.10
*OUTPUT, HISTORY, FREQUENCY=1
*NODE OUTPUT, NSET=RIGHT_EDGE
U1, RF1
*END STEP
*STEP, NAME=CYCLE_0353, NLGEOM=NO, INC=160
*STATIC
0.005, 1.0, 1.0E-08, 0.025
*BOUNDARY, AMPLITUDE=AMP_ONE_CYCLE
RIGHT_EDGE, 1, 1, 0.10
*OUTPUT, HISTORY, FREQUENCY=1
*NODE OUTPUT, NSET=RIGHT_EDGE
U1, RF1
*END STEP
*STEP, NAME=CYCLE_0354, NLGEOM=NO, INC=160
*STATIC
0.005, 1.0, 1.0E-08, 0.025
*BOUNDARY, AMPLITUDE=AMP_ONE_CYCLE
RIGHT_EDGE, 1, 1, 0.10
*OUTPUT, HISTORY, FREQUENCY=1
*NODE OUTPUT, NSET=RIGHT_EDGE
U1, RF1
*END STEP
*STEP, NAME=CYCLE_0355, NLGEOM=NO, INC=160
*STATIC
0.005, 1.0, 1.0E-08, 0.025
*BOUNDARY, AMPLITUDE=AMP_ONE_CYCLE
RIGHT_EDGE, 1, 1, 0.10
*OUTPUT, HISTORY, FREQUENCY=1
*NODE OUTPUT, NSET=RIGHT_EDGE
U1, RF1
*END STEP
*STEP, NAME=CYCLE_0356, NLGEOM=NO, INC=160
*STATIC
0.005, 1.0, 1.0E-08, 0.025
*BOUNDARY, AMPLITUDE=AMP_ONE_CYCLE
RIGHT_EDGE, 1, 1, 0.10
*OUTPUT, HISTORY, FREQUENCY=1
*NODE OUTPUT, NSET=RIGHT_EDGE
U1, RF1
*END STEP
*STEP, NAME=CYCLE_0357, NLGEOM=NO, INC=160
*STATIC
0.005, 1.0, 1.0E-08, 0.025
*BOUNDARY, AMPLITUDE=AMP_ONE_CYCLE
RIGHT_EDGE, 1, 1, 0.10
*OUTPUT, HISTORY, FREQUENCY=1
*NODE OUTPUT, NSET=RIGHT_EDGE
U1, RF1
*END STEP
*STEP, NAME=CYCLE_0358, NLGEOM=NO, INC=160
*STATIC
0.005, 1.0, 1.0E-08, 0.025
*BOUNDARY, AMPLITUDE=AMP_ONE_CYCLE
RIGHT_EDGE, 1, 1, 0.10
*OUTPUT, HISTORY, FREQUENCY=1
*NODE OUTPUT, NSET=RIGHT_EDGE
U1, RF1
*END STEP
*STEP, NAME=CYCLE_0359, NLGEOM=NO, INC=160
*STATIC
0.005, 1.0, 1.0E-08, 0.025
*BOUNDARY, AMPLITUDE=AMP_ONE_CYCLE
RIGHT_EDGE, 1, 1, 0.10
*OUTPUT, HISTORY, FREQUENCY=1
*NODE OUTPUT, NSET=RIGHT_EDGE
U1, RF1
*END STEP
*STEP, NAME=CYCLE_0360, NLGEOM=NO, INC=160
*STATIC
0.005, 1.0, 1.0E-08, 0.025
*BOUNDARY, AMPLITUDE=AMP_ONE_CYCLE
RIGHT_EDGE, 1, 1, 0.10
*OUTPUT, HISTORY, FREQUENCY=1
*NODE OUTPUT, NSET=RIGHT_EDGE
U1, RF1
*END STEP
*STEP, NAME=CYCLE_0361, NLGEOM=NO, INC=160
*STATIC
0.005, 1.0, 1.0E-08, 0.025
*BOUNDARY, AMPLITUDE=AMP_ONE_CYCLE
RIGHT_EDGE, 1, 1, 0.10
*OUTPUT, HISTORY, FREQUENCY=1
*NODE OUTPUT, NSET=RIGHT_EDGE
U1, RF1
*END STEP
*STEP, NAME=CYCLE_0362, NLGEOM=NO, INC=160
*STATIC
0.005, 1.0, 1.0E-08, 0.025
*BOUNDARY, AMPLITUDE=AMP_ONE_CYCLE
RIGHT_EDGE, 1, 1, 0.10
*OUTPUT, HISTORY, FREQUENCY=1
*NODE OUTPUT, NSET=RIGHT_EDGE
U1, RF1
*END STEP
*STEP, NAME=CYCLE_0363, NLGEOM=NO, INC=160
*STATIC
0.005, 1.0, 1.0E-08, 0.025
*BOUNDARY, AMPLITUDE=AMP_ONE_CYCLE
RIGHT_EDGE, 1, 1, 0.10
*OUTPUT, HISTORY, FREQUENCY=1
*NODE OUTPUT, NSET=RIGHT_EDGE
U1, RF1
*END STEP
*STEP, NAME=CYCLE_0364, NLGEOM=NO, INC=160
*STATIC
0.005, 1.0, 1.0E-08, 0.025
*BOUNDARY, AMPLITUDE=AMP_ONE_CYCLE
RIGHT_EDGE, 1, 1, 0.10
*OUTPUT, HISTORY, FREQUENCY=1
*NODE OUTPUT, NSET=RIGHT_EDGE
U1, RF1
*END STEP
*STEP, NAME=CYCLE_0365, NLGEOM=NO, INC=160
*STATIC
0.005, 1.0, 1.0E-08, 0.025
*BOUNDARY, AMPLITUDE=AMP_ONE_CYCLE
RIGHT_EDGE, 1, 1, 0.10
*OUTPUT, HISTORY, FREQUENCY=1
*NODE OUTPUT, NSET=RIGHT_EDGE
U1, RF1
*END STEP
*STEP, NAME=CYCLE_0366, NLGEOM=NO, INC=160
*STATIC
0.005, 1.0, 1.0E-08, 0.025
*BOUNDARY, AMPLITUDE=AMP_ONE_CYCLE
RIGHT_EDGE, 1, 1, 0.10
*OUTPUT, HISTORY, FREQUENCY=1
*NODE OUTPUT, NSET=RIGHT_EDGE
U1, RF1
*END STEP
*STEP, NAME=CYCLE_0367, NLGEOM=NO, INC=160
*STATIC
0.005, 1.0, 1.0E-08, 0.025
*BOUNDARY, AMPLITUDE=AMP_ONE_CYCLE
RIGHT_EDGE, 1, 1, 0.10
*OUTPUT, HISTORY, FREQUENCY=1
*NODE OUTPUT, NSET=RIGHT_EDGE
U1, RF1
*END STEP
*STEP, NAME=CYCLE_0368, NLGEOM=NO, INC=160
*STATIC
0.005, 1.0, 1.0E-08, 0.025
*BOUNDARY, AMPLITUDE=AMP_ONE_CYCLE
RIGHT_EDGE, 1, 1, 0.10
*OUTPUT, HISTORY, FREQUENCY=1
*NODE OUTPUT, NSET=RIGHT_EDGE
U1, RF1
*END STEP
*STEP, NAME=CYCLE_0369, NLGEOM=NO, INC=160
*STATIC
0.005, 1.0, 1.0E-08, 0.025
*BOUNDARY, AMPLITUDE=AMP_ONE_CYCLE
RIGHT_EDGE, 1, 1, 0.10
*OUTPUT, HISTORY, FREQUENCY=1
*NODE OUTPUT, NSET=RIGHT_EDGE
U1, RF1
*END STEP
*STEP, NAME=CYCLE_0370, NLGEOM=NO, INC=160
*STATIC
0.005, 1.0, 1.0E-08, 0.025
*BOUNDARY, AMPLITUDE=AMP_ONE_CYCLE
RIGHT_EDGE, 1, 1, 0.10
*OUTPUT, HISTORY, FREQUENCY=1
*NODE OUTPUT, NSET=RIGHT_EDGE
U1, RF1
*END STEP
*STEP, NAME=CYCLE_0371, NLGEOM=NO, INC=160
*STATIC
0.005, 1.0, 1.0E-08, 0.025
*BOUNDARY, AMPLITUDE=AMP_ONE_CYCLE
RIGHT_EDGE, 1, 1, 0.10
*OUTPUT, HISTORY, FREQUENCY=1
*NODE OUTPUT, NSET=RIGHT_EDGE
U1, RF1
*END STEP
*STEP, NAME=CYCLE_0372, NLGEOM=NO, INC=160
*STATIC
0.005, 1.0, 1.0E-08, 0.025
*BOUNDARY, AMPLITUDE=AMP_ONE_CYCLE
RIGHT_EDGE, 1, 1, 0.10
*OUTPUT, HISTORY, FREQUENCY=1
*NODE OUTPUT, NSET=RIGHT_EDGE
U1, RF1
*END STEP
*STEP, NAME=CYCLE_0373, NLGEOM=NO, INC=160
*STATIC
0.005, 1.0, 1.0E-08, 0.025
*BOUNDARY, AMPLITUDE=AMP_ONE_CYCLE
RIGHT_EDGE, 1, 1, 0.10
*OUTPUT, HISTORY, FREQUENCY=1
*NODE OUTPUT, NSET=RIGHT_EDGE
U1, RF1
*END STEP
*STEP, NAME=CYCLE_0374, NLGEOM=NO, INC=160
*STATIC
0.005, 1.0, 1.0E-08, 0.025
*BOUNDARY, AMPLITUDE=AMP_ONE_CYCLE
RIGHT_EDGE, 1, 1, 0.10
*OUTPUT, HISTORY, FREQUENCY=1
*NODE OUTPUT, NSET=RIGHT_EDGE
U1, RF1
*END STEP
*STEP, NAME=CYCLE_0375, NLGEOM=NO, INC=160
*STATIC
0.005, 1.0, 1.0E-08, 0.025
*BOUNDARY, AMPLITUDE=AMP_ONE_CYCLE
RIGHT_EDGE, 1, 1, 0.10
*OUTPUT, HISTORY, FREQUENCY=1
*NODE OUTPUT, NSET=RIGHT_EDGE
U1, RF1
*END STEP
*STEP, NAME=CYCLE_0376, NLGEOM=NO, INC=160
*STATIC
0.005, 1.0, 1.0E-08, 0.025
*BOUNDARY, AMPLITUDE=AMP_ONE_CYCLE
RIGHT_EDGE, 1, 1, 0.10
*OUTPUT, HISTORY, FREQUENCY=1
*NODE OUTPUT, NSET=RIGHT_EDGE
U1, RF1
*END STEP
*STEP, NAME=CYCLE_0377, NLGEOM=NO, INC=160
*STATIC
0.005, 1.0, 1.0E-08, 0.025
*BOUNDARY, AMPLITUDE=AMP_ONE_CYCLE
RIGHT_EDGE, 1, 1, 0.10
*OUTPUT, HISTORY, FREQUENCY=1
*NODE OUTPUT, NSET=RIGHT_EDGE
U1, RF1
*END STEP
*STEP, NAME=CYCLE_0378, NLGEOM=NO, INC=160
*STATIC
0.005, 1.0, 1.0E-08, 0.025
*BOUNDARY, AMPLITUDE=AMP_ONE_CYCLE
RIGHT_EDGE, 1, 1, 0.10
*OUTPUT, HISTORY, FREQUENCY=1
*NODE OUTPUT, NSET=RIGHT_EDGE
U1, RF1
*END STEP
*STEP, NAME=CYCLE_0379, NLGEOM=NO, INC=160
*STATIC
0.005, 1.0, 1.0E-08, 0.025
*BOUNDARY, AMPLITUDE=AMP_ONE_CYCLE
RIGHT_EDGE, 1, 1, 0.10
*OUTPUT, HISTORY, FREQUENCY=1
*NODE OUTPUT, NSET=RIGHT_EDGE
U1, RF1
*END STEP
*STEP, NAME=CYCLE_0380, NLGEOM=NO, INC=160
*STATIC
0.005, 1.0, 1.0E-08, 0.025
*BOUNDARY, AMPLITUDE=AMP_ONE_CYCLE
RIGHT_EDGE, 1, 1, 0.10
*OUTPUT, HISTORY, FREQUENCY=1
*NODE OUTPUT, NSET=RIGHT_EDGE
U1, RF1
*END STEP
*STEP, NAME=CYCLE_0381, NLGEOM=NO, INC=160
*STATIC
0.005, 1.0, 1.0E-08, 0.025
*BOUNDARY, AMPLITUDE=AMP_ONE_CYCLE
RIGHT_EDGE, 1, 1, 0.10
*OUTPUT, HISTORY, FREQUENCY=1
*NODE OUTPUT, NSET=RIGHT_EDGE
U1, RF1
*END STEP
*STEP, NAME=CYCLE_0382, NLGEOM=NO, INC=160
*STATIC
0.005, 1.0, 1.0E-08, 0.025
*BOUNDARY, AMPLITUDE=AMP_ONE_CYCLE
RIGHT_EDGE, 1, 1, 0.10
*OUTPUT, HISTORY, FREQUENCY=1
*NODE OUTPUT, NSET=RIGHT_EDGE
U1, RF1
*END STEP
*STEP, NAME=CYCLE_0383, NLGEOM=NO, INC=160
*STATIC
0.005, 1.0, 1.0E-08, 0.025
*BOUNDARY, AMPLITUDE=AMP_ONE_CYCLE
RIGHT_EDGE, 1, 1, 0.10
*OUTPUT, HISTORY, FREQUENCY=1
*NODE OUTPUT, NSET=RIGHT_EDGE
U1, RF1
*END STEP
*STEP, NAME=CYCLE_0384, NLGEOM=NO, INC=160
*STATIC
0.005, 1.0, 1.0E-08, 0.025
*BOUNDARY, AMPLITUDE=AMP_ONE_CYCLE
RIGHT_EDGE, 1, 1, 0.10
*OUTPUT, HISTORY, FREQUENCY=1
*NODE OUTPUT, NSET=RIGHT_EDGE
U1, RF1
*END STEP
*STEP, NAME=CYCLE_0385, NLGEOM=NO, INC=160
*STATIC
0.005, 1.0, 1.0E-08, 0.025
*BOUNDARY, AMPLITUDE=AMP_ONE_CYCLE
RIGHT_EDGE, 1, 1, 0.10
*OUTPUT, HISTORY, FREQUENCY=1
*NODE OUTPUT, NSET=RIGHT_EDGE
U1, RF1
*END STEP
*STEP, NAME=CYCLE_0386, NLGEOM=NO, INC=160
*STATIC
0.005, 1.0, 1.0E-08, 0.025
*BOUNDARY, AMPLITUDE=AMP_ONE_CYCLE
RIGHT_EDGE, 1, 1, 0.10
*OUTPUT, HISTORY, FREQUENCY=1
*NODE OUTPUT, NSET=RIGHT_EDGE
U1, RF1
*END STEP
*STEP, NAME=CYCLE_0387, NLGEOM=NO, INC=160
*STATIC
0.005, 1.0, 1.0E-08, 0.025
*BOUNDARY, AMPLITUDE=AMP_ONE_CYCLE
RIGHT_EDGE, 1, 1, 0.10
*OUTPUT, HISTORY, FREQUENCY=1
*NODE OUTPUT, NSET=RIGHT_EDGE
U1, RF1
*END STEP
*STEP, NAME=CYCLE_0388, NLGEOM=NO, INC=160
*STATIC
0.005, 1.0, 1.0E-08, 0.025
*BOUNDARY, AMPLITUDE=AMP_ONE_CYCLE
RIGHT_EDGE, 1, 1, 0.10
*OUTPUT, HISTORY, FREQUENCY=1
*NODE OUTPUT, NSET=RIGHT_EDGE
U1, RF1
*END STEP
*STEP, NAME=CYCLE_0389, NLGEOM=NO, INC=160
*STATIC
0.005, 1.0, 1.0E-08, 0.025
*BOUNDARY, AMPLITUDE=AMP_ONE_CYCLE
RIGHT_EDGE, 1, 1, 0.10
*OUTPUT, HISTORY, FREQUENCY=1
*NODE OUTPUT, NSET=RIGHT_EDGE
U1, RF1
*END STEP
*STEP, NAME=CYCLE_0390, NLGEOM=NO, INC=160
*STATIC
0.005, 1.0, 1.0E-08, 0.025
*BOUNDARY, AMPLITUDE=AMP_ONE_CYCLE
RIGHT_EDGE, 1, 1, 0.10
*OUTPUT, HISTORY, FREQUENCY=1
*NODE OUTPUT, NSET=RIGHT_EDGE
U1, RF1
*END STEP
*STEP, NAME=CYCLE_0391, NLGEOM=NO, INC=160
*STATIC
0.005, 1.0, 1.0E-08, 0.025
*BOUNDARY, AMPLITUDE=AMP_ONE_CYCLE
RIGHT_EDGE, 1, 1, 0.10
*OUTPUT, HISTORY, FREQUENCY=1
*NODE OUTPUT, NSET=RIGHT_EDGE
U1, RF1
*END STEP
*STEP, NAME=CYCLE_0392, NLGEOM=NO, INC=160
*STATIC
0.005, 1.0, 1.0E-08, 0.025
*BOUNDARY, AMPLITUDE=AMP_ONE_CYCLE
RIGHT_EDGE, 1, 1, 0.10
*OUTPUT, HISTORY, FREQUENCY=1
*NODE OUTPUT, NSET=RIGHT_EDGE
U1, RF1
*END STEP
*STEP, NAME=CYCLE_0393, NLGEOM=NO, INC=160
*STATIC
0.005, 1.0, 1.0E-08, 0.025
*BOUNDARY, AMPLITUDE=AMP_ONE_CYCLE
RIGHT_EDGE, 1, 1, 0.10
*OUTPUT, HISTORY, FREQUENCY=1
*NODE OUTPUT, NSET=RIGHT_EDGE
U1, RF1
*END STEP
*STEP, NAME=CYCLE_0394, NLGEOM=NO, INC=160
*STATIC
0.005, 1.0, 1.0E-08, 0.025
*BOUNDARY, AMPLITUDE=AMP_ONE_CYCLE
RIGHT_EDGE, 1, 1, 0.10
*OUTPUT, HISTORY, FREQUENCY=1
*NODE OUTPUT, NSET=RIGHT_EDGE
U1, RF1
*END STEP
*STEP, NAME=CYCLE_0395, NLGEOM=NO, INC=160
*STATIC
0.005, 1.0, 1.0E-08, 0.025
*BOUNDARY, AMPLITUDE=AMP_ONE_CYCLE
RIGHT_EDGE, 1, 1, 0.10
*OUTPUT, HISTORY, FREQUENCY=1
*NODE OUTPUT, NSET=RIGHT_EDGE
U1, RF1
*END STEP
*STEP, NAME=CYCLE_0396, NLGEOM=NO, INC=160
*STATIC
0.005, 1.0, 1.0E-08, 0.025
*BOUNDARY, AMPLITUDE=AMP_ONE_CYCLE
RIGHT_EDGE, 1, 1, 0.10
*OUTPUT, HISTORY, FREQUENCY=1
*NODE OUTPUT, NSET=RIGHT_EDGE
U1, RF1
*END STEP
*STEP, NAME=CYCLE_0397, NLGEOM=NO, INC=160
*STATIC
0.005, 1.0, 1.0E-08, 0.025
*BOUNDARY, AMPLITUDE=AMP_ONE_CYCLE
RIGHT_EDGE, 1, 1, 0.10
*OUTPUT, HISTORY, FREQUENCY=1
*NODE OUTPUT, NSET=RIGHT_EDGE
U1, RF1
*END STEP
*STEP, NAME=CYCLE_0398, NLGEOM=NO, INC=160
*STATIC
0.005, 1.0, 1.0E-08, 0.025
*BOUNDARY, AMPLITUDE=AMP_ONE_CYCLE
RIGHT_EDGE, 1, 1, 0.10
*OUTPUT, HISTORY, FREQUENCY=1
*NODE OUTPUT, NSET=RIGHT_EDGE
U1, RF1
*END STEP
*STEP, NAME=CYCLE_0399, NLGEOM=NO, INC=160
*STATIC
0.005, 1.0, 1.0E-08, 0.025
*BOUNDARY, AMPLITUDE=AMP_ONE_CYCLE
RIGHT_EDGE, 1, 1, 0.10
*OUTPUT, HISTORY, FREQUENCY=1
*NODE OUTPUT, NSET=RIGHT_EDGE
U1, RF1
*END STEP
*STEP, NAME=CYCLE_0400, NLGEOM=NO, INC=160
*STATIC
0.005, 1.0, 1.0E-08, 0.025
*BOUNDARY, AMPLITUDE=AMP_ONE_CYCLE
RIGHT_EDGE, 1, 1, 0.10
*OUTPUT, HISTORY, FREQUENCY=1
*NODE OUTPUT, NSET=RIGHT_EDGE
U1, RF1
*END STEP
*STEP, NAME=CYCLE_0401, NLGEOM=NO, INC=160
*STATIC
0.005, 1.0, 1.0E-08, 0.025
*BOUNDARY, AMPLITUDE=AMP_ONE_CYCLE
RIGHT_EDGE, 1, 1, 0.10
*OUTPUT, HISTORY, FREQUENCY=1
*NODE OUTPUT, NSET=RIGHT_EDGE
U1, RF1
*END STEP
*STEP, NAME=CYCLE_0402, NLGEOM=NO, INC=160
*STATIC
0.005, 1.0, 1.0E-08, 0.025
*BOUNDARY, AMPLITUDE=AMP_ONE_CYCLE
RIGHT_EDGE, 1, 1, 0.10
*OUTPUT, HISTORY, FREQUENCY=1
*NODE OUTPUT, NSET=RIGHT_EDGE
U1, RF1
*END STEP
*STEP, NAME=CYCLE_0403, NLGEOM=NO, INC=160
*STATIC
0.005, 1.0, 1.0E-08, 0.025
*BOUNDARY, AMPLITUDE=AMP_ONE_CYCLE
RIGHT_EDGE, 1, 1, 0.10
*OUTPUT, HISTORY, FREQUENCY=1
*NODE OUTPUT, NSET=RIGHT_EDGE
U1, RF1
*END STEP
*STEP, NAME=CYCLE_0404, NLGEOM=NO, INC=160
*STATIC
0.005, 1.0, 1.0E-08, 0.025
*BOUNDARY, AMPLITUDE=AMP_ONE_CYCLE
RIGHT_EDGE, 1, 1, 0.10
*OUTPUT, HISTORY, FREQUENCY=1
*NODE OUTPUT, NSET=RIGHT_EDGE
U1, RF1
*END STEP
*STEP, NAME=CYCLE_0405, NLGEOM=NO, INC=160
*STATIC
0.005, 1.0, 1.0E-08, 0.025
*BOUNDARY, AMPLITUDE=AMP_ONE_CYCLE
RIGHT_EDGE, 1, 1, 0.10
*OUTPUT, HISTORY, FREQUENCY=1
*NODE OUTPUT, NSET=RIGHT_EDGE
U1, RF1
*END STEP
*STEP, NAME=CYCLE_0406, NLGEOM=NO, INC=160
*STATIC
0.005, 1.0, 1.0E-08, 0.025
*BOUNDARY, AMPLITUDE=AMP_ONE_CYCLE
RIGHT_EDGE, 1, 1, 0.10
*OUTPUT, HISTORY, FREQUENCY=1
*NODE OUTPUT, NSET=RIGHT_EDGE
U1, RF1
*END STEP
*STEP, NAME=CYCLE_0407, NLGEOM=NO, INC=160
*STATIC
0.005, 1.0, 1.0E-08, 0.025
*BOUNDARY, AMPLITUDE=AMP_ONE_CYCLE
RIGHT_EDGE, 1, 1, 0.10
*OUTPUT, HISTORY, FREQUENCY=1
*NODE OUTPUT, NSET=RIGHT_EDGE
U1, RF1
*END STEP
*STEP, NAME=CYCLE_0408, NLGEOM=NO, INC=160
*STATIC
0.005, 1.0, 1.0E-08, 0.025
*BOUNDARY, AMPLITUDE=AMP_ONE_CYCLE
RIGHT_EDGE, 1, 1, 0.10
*OUTPUT, HISTORY, FREQUENCY=1
*NODE OUTPUT, NSET=RIGHT_EDGE
U1, RF1
*END STEP
*STEP, NAME=CYCLE_0409, NLGEOM=NO, INC=160
*STATIC
0.005, 1.0, 1.0E-08, 0.025
*BOUNDARY, AMPLITUDE=AMP_ONE_CYCLE
RIGHT_EDGE, 1, 1, 0.10
*OUTPUT, HISTORY, FREQUENCY=1
*NODE OUTPUT, NSET=RIGHT_EDGE
U1, RF1
*END STEP
*STEP, NAME=CYCLE_0410, NLGEOM=NO, INC=160
*STATIC
0.005, 1.0, 1.0E-08, 0.025
*BOUNDARY, AMPLITUDE=AMP_ONE_CYCLE
RIGHT_EDGE, 1, 1, 0.10
*OUTPUT, HISTORY, FREQUENCY=1
*NODE OUTPUT, NSET=RIGHT_EDGE
U1, RF1
*END STEP
*STEP, NAME=CYCLE_0411, NLGEOM=NO, INC=160
*STATIC
0.005, 1.0, 1.0E-08, 0.025
*BOUNDARY, AMPLITUDE=AMP_ONE_CYCLE
RIGHT_EDGE, 1, 1, 0.10
*OUTPUT, HISTORY, FREQUENCY=1
*NODE OUTPUT, NSET=RIGHT_EDGE
U1, RF1
*END STEP
*STEP, NAME=CYCLE_0412, NLGEOM=NO, INC=160
*STATIC
0.005, 1.0, 1.0E-08, 0.025
*BOUNDARY, AMPLITUDE=AMP_ONE_CYCLE
RIGHT_EDGE, 1, 1, 0.10
*OUTPUT, HISTORY, FREQUENCY=1
*NODE OUTPUT, NSET=RIGHT_EDGE
U1, RF1
*END STEP
*STEP, NAME=CYCLE_0413, NLGEOM=NO, INC=160
*STATIC
0.005, 1.0, 1.0E-08, 0.025
*BOUNDARY, AMPLITUDE=AMP_ONE_CYCLE
RIGHT_EDGE, 1, 1, 0.10
*OUTPUT, HISTORY, FREQUENCY=1
*NODE OUTPUT, NSET=RIGHT_EDGE
U1, RF1
*END STEP
*STEP, NAME=CYCLE_0414, NLGEOM=NO, INC=160
*STATIC
0.005, 1.0, 1.0E-08, 0.025
*BOUNDARY, AMPLITUDE=AMP_ONE_CYCLE
RIGHT_EDGE, 1, 1, 0.10
*OUTPUT, HISTORY, FREQUENCY=1
*NODE OUTPUT, NSET=RIGHT_EDGE
U1, RF1
*END STEP
*STEP, NAME=CYCLE_0415, NLGEOM=NO, INC=160
*STATIC
0.005, 1.0, 1.0E-08, 0.025
*BOUNDARY, AMPLITUDE=AMP_ONE_CYCLE
RIGHT_EDGE, 1, 1, 0.10
*OUTPUT, HISTORY, FREQUENCY=1
*NODE OUTPUT, NSET=RIGHT_EDGE
U1, RF1
*END STEP
*STEP, NAME=CYCLE_0416, NLGEOM=NO, INC=160
*STATIC
0.005, 1.0, 1.0E-08, 0.025
*BOUNDARY, AMPLITUDE=AMP_ONE_CYCLE
RIGHT_EDGE, 1, 1, 0.10
*OUTPUT, HISTORY, FREQUENCY=1
*NODE OUTPUT, NSET=RIGHT_EDGE
U1, RF1
*END STEP
*STEP, NAME=CYCLE_0417, NLGEOM=NO, INC=160
*STATIC
0.005, 1.0, 1.0E-08, 0.025
*BOUNDARY, AMPLITUDE=AMP_ONE_CYCLE
RIGHT_EDGE, 1, 1, 0.10
*OUTPUT, HISTORY, FREQUENCY=1
*NODE OUTPUT, NSET=RIGHT_EDGE
U1, RF1
*END STEP
*STEP, NAME=CYCLE_0418, NLGEOM=NO, INC=160
*STATIC
0.005, 1.0, 1.0E-08, 0.025
*BOUNDARY, AMPLITUDE=AMP_ONE_CYCLE
RIGHT_EDGE, 1, 1, 0.10
*OUTPUT, HISTORY, FREQUENCY=1
*NODE OUTPUT, NSET=RIGHT_EDGE
U1, RF1
*END STEP
*STEP, NAME=CYCLE_0419, NLGEOM=NO, INC=160
*STATIC
0.005, 1.0, 1.0E-08, 0.025
*BOUNDARY, AMPLITUDE=AMP_ONE_CYCLE
RIGHT_EDGE, 1, 1, 0.10
*OUTPUT, HISTORY, FREQUENCY=1
*NODE OUTPUT, NSET=RIGHT_EDGE
U1, RF1
*END STEP
*STEP, NAME=CYCLE_0420, NLGEOM=NO, INC=160
*STATIC
0.005, 1.0, 1.0E-08, 0.025
*BOUNDARY, AMPLITUDE=AMP_ONE_CYCLE
RIGHT_EDGE, 1, 1, 0.10
*OUTPUT, HISTORY, FREQUENCY=1
*NODE OUTPUT, NSET=RIGHT_EDGE
U1, RF1
*END STEP
*STEP, NAME=CYCLE_0421, NLGEOM=NO, INC=160
*STATIC
0.005, 1.0, 1.0E-08, 0.025
*BOUNDARY, AMPLITUDE=AMP_ONE_CYCLE
RIGHT_EDGE, 1, 1, 0.10
*OUTPUT, HISTORY, FREQUENCY=1
*NODE OUTPUT, NSET=RIGHT_EDGE
U1, RF1
*END STEP
*STEP, NAME=CYCLE_0422, NLGEOM=NO, INC=160
*STATIC
0.005, 1.0, 1.0E-08, 0.025
*BOUNDARY, AMPLITUDE=AMP_ONE_CYCLE
RIGHT_EDGE, 1, 1, 0.10
*OUTPUT, HISTORY, FREQUENCY=1
*NODE OUTPUT, NSET=RIGHT_EDGE
U1, RF1
*END STEP
*STEP, NAME=CYCLE_0423, NLGEOM=NO, INC=160
*STATIC
0.005, 1.0, 1.0E-08, 0.025
*BOUNDARY, AMPLITUDE=AMP_ONE_CYCLE
RIGHT_EDGE, 1, 1, 0.10
*OUTPUT, HISTORY, FREQUENCY=1
*NODE OUTPUT, NSET=RIGHT_EDGE
U1, RF1
*END STEP
*STEP, NAME=CYCLE_0424, NLGEOM=NO, INC=160
*STATIC
0.005, 1.0, 1.0E-08, 0.025
*BOUNDARY, AMPLITUDE=AMP_ONE_CYCLE
RIGHT_EDGE, 1, 1, 0.10
*OUTPUT, HISTORY, FREQUENCY=1
*NODE OUTPUT, NSET=RIGHT_EDGE
U1, RF1
*END STEP
*STEP, NAME=CYCLE_0425, NLGEOM=NO, INC=160
*STATIC
0.005, 1.0, 1.0E-08, 0.025
*BOUNDARY, AMPLITUDE=AMP_ONE_CYCLE
RIGHT_EDGE, 1, 1, 0.10
*OUTPUT, HISTORY, FREQUENCY=1
*NODE OUTPUT, NSET=RIGHT_EDGE
U1, RF1
*END STEP
*STEP, NAME=CYCLE_0426, NLGEOM=NO, INC=160
*STATIC
0.005, 1.0, 1.0E-08, 0.025
*BOUNDARY, AMPLITUDE=AMP_ONE_CYCLE
RIGHT_EDGE, 1, 1, 0.10
*OUTPUT, HISTORY, FREQUENCY=1
*NODE OUTPUT, NSET=RIGHT_EDGE
U1, RF1
*END STEP
*STEP, NAME=CYCLE_0427, NLGEOM=NO, INC=160
*STATIC
0.005, 1.0, 1.0E-08, 0.025
*BOUNDARY, AMPLITUDE=AMP_ONE_CYCLE
RIGHT_EDGE, 1, 1, 0.10
*OUTPUT, HISTORY, FREQUENCY=1
*NODE OUTPUT, NSET=RIGHT_EDGE
U1, RF1
*END STEP
*STEP, NAME=CYCLE_0428, NLGEOM=NO, INC=160
*STATIC
0.005, 1.0, 1.0E-08, 0.025
*BOUNDARY, AMPLITUDE=AMP_ONE_CYCLE
RIGHT_EDGE, 1, 1, 0.10
*OUTPUT, HISTORY, FREQUENCY=1
*NODE OUTPUT, NSET=RIGHT_EDGE
U1, RF1
*END STEP
*STEP, NAME=CYCLE_0429, NLGEOM=NO, INC=160
*STATIC
0.005, 1.0, 1.0E-08, 0.025
*BOUNDARY, AMPLITUDE=AMP_ONE_CYCLE
RIGHT_EDGE, 1, 1, 0.10
*OUTPUT, HISTORY, FREQUENCY=1
*NODE OUTPUT, NSET=RIGHT_EDGE
U1, RF1
*END STEP
*STEP, NAME=CYCLE_0430, NLGEOM=NO, INC=160
*STATIC
0.005, 1.0, 1.0E-08, 0.025
*BOUNDARY, AMPLITUDE=AMP_ONE_CYCLE
RIGHT_EDGE, 1, 1, 0.10
*OUTPUT, HISTORY, FREQUENCY=1
*NODE OUTPUT, NSET=RIGHT_EDGE
U1, RF1
*END STEP
*STEP, NAME=CYCLE_0431, NLGEOM=NO, INC=160
*STATIC
0.005, 1.0, 1.0E-08, 0.025
*BOUNDARY, AMPLITUDE=AMP_ONE_CYCLE
RIGHT_EDGE, 1, 1, 0.10
*OUTPUT, HISTORY, FREQUENCY=1
*NODE OUTPUT, NSET=RIGHT_EDGE
U1, RF1
*END STEP
*STEP, NAME=CYCLE_0432, NLGEOM=NO, INC=160
*STATIC
0.005, 1.0, 1.0E-08, 0.025
*BOUNDARY, AMPLITUDE=AMP_ONE_CYCLE
RIGHT_EDGE, 1, 1, 0.10
*OUTPUT, HISTORY, FREQUENCY=1
*NODE OUTPUT, NSET=RIGHT_EDGE
U1, RF1
*END STEP
*STEP, NAME=CYCLE_0433, NLGEOM=NO, INC=160
*STATIC
0.005, 1.0, 1.0E-08, 0.025
*BOUNDARY, AMPLITUDE=AMP_ONE_CYCLE
RIGHT_EDGE, 1, 1, 0.10
*OUTPUT, HISTORY, FREQUENCY=1
*NODE OUTPUT, NSET=RIGHT_EDGE
U1, RF1
*END STEP
*STEP, NAME=CYCLE_0434, NLGEOM=NO, INC=160
*STATIC
0.005, 1.0, 1.0E-08, 0.025
*BOUNDARY, AMPLITUDE=AMP_ONE_CYCLE
RIGHT_EDGE, 1, 1, 0.10
*OUTPUT, HISTORY, FREQUENCY=1
*NODE OUTPUT, NSET=RIGHT_EDGE
U1, RF1
*END STEP
*STEP, NAME=CYCLE_0435, NLGEOM=NO, INC=160
*STATIC
0.005, 1.0, 1.0E-08, 0.025
*BOUNDARY, AMPLITUDE=AMP_ONE_CYCLE
RIGHT_EDGE, 1, 1, 0.10
*OUTPUT, HISTORY, FREQUENCY=1
*NODE OUTPUT, NSET=RIGHT_EDGE
U1, RF1
*END STEP
*STEP, NAME=CYCLE_0436, NLGEOM=NO, INC=160
*STATIC
0.005, 1.0, 1.0E-08, 0.025
*BOUNDARY, AMPLITUDE=AMP_ONE_CYCLE
RIGHT_EDGE, 1, 1, 0.10
*OUTPUT, HISTORY, FREQUENCY=1
*NODE OUTPUT, NSET=RIGHT_EDGE
U1, RF1
*END STEP
*STEP, NAME=CYCLE_0437, NLGEOM=NO, INC=160
*STATIC
0.005, 1.0, 1.0E-08, 0.025
*BOUNDARY, AMPLITUDE=AMP_ONE_CYCLE
RIGHT_EDGE, 1, 1, 0.10
*OUTPUT, HISTORY, FREQUENCY=1
*NODE OUTPUT, NSET=RIGHT_EDGE
U1, RF1
*END STEP
*STEP, NAME=CYCLE_0438, NLGEOM=NO, INC=160
*STATIC
0.005, 1.0, 1.0E-08, 0.025
*BOUNDARY, AMPLITUDE=AMP_ONE_CYCLE
RIGHT_EDGE, 1, 1, 0.10
*OUTPUT, HISTORY, FREQUENCY=1
*NODE OUTPUT, NSET=RIGHT_EDGE
U1, RF1
*END STEP
*STEP, NAME=CYCLE_0439, NLGEOM=NO, INC=160
*STATIC
0.005, 1.0, 1.0E-08, 0.025
*BOUNDARY, AMPLITUDE=AMP_ONE_CYCLE
RIGHT_EDGE, 1, 1, 0.10
*OUTPUT, HISTORY, FREQUENCY=1
*NODE OUTPUT, NSET=RIGHT_EDGE
U1, RF1
*END STEP
*STEP, NAME=CYCLE_0440, NLGEOM=NO, INC=160
*STATIC
0.005, 1.0, 1.0E-08, 0.025
*BOUNDARY, AMPLITUDE=AMP_ONE_CYCLE
RIGHT_EDGE, 1, 1, 0.10
*OUTPUT, HISTORY, FREQUENCY=1
*NODE OUTPUT, NSET=RIGHT_EDGE
U1, RF1
*END STEP
*STEP, NAME=CYCLE_0441, NLGEOM=NO, INC=160
*STATIC
0.005, 1.0, 1.0E-08, 0.025
*BOUNDARY, AMPLITUDE=AMP_ONE_CYCLE
RIGHT_EDGE, 1, 1, 0.10
*OUTPUT, HISTORY, FREQUENCY=1
*NODE OUTPUT, NSET=RIGHT_EDGE
U1, RF1
*END STEP
*STEP, NAME=CYCLE_0442, NLGEOM=NO, INC=160
*STATIC
0.005, 1.0, 1.0E-08, 0.025
*BOUNDARY, AMPLITUDE=AMP_ONE_CYCLE
RIGHT_EDGE, 1, 1, 0.10
*OUTPUT, HISTORY, FREQUENCY=1
*NODE OUTPUT, NSET=RIGHT_EDGE
U1, RF1
*END STEP
*STEP, NAME=CYCLE_0443, NLGEOM=NO, INC=160
*STATIC
0.005, 1.0, 1.0E-08, 0.025
*BOUNDARY, AMPLITUDE=AMP_ONE_CYCLE
RIGHT_EDGE, 1, 1, 0.10
*OUTPUT, HISTORY, FREQUENCY=1
*NODE OUTPUT, NSET=RIGHT_EDGE
U1, RF1
*END STEP
*STEP, NAME=CYCLE_0444, NLGEOM=NO, INC=160
*STATIC
0.005, 1.0, 1.0E-08, 0.025
*BOUNDARY, AMPLITUDE=AMP_ONE_CYCLE
RIGHT_EDGE, 1, 1, 0.10
*OUTPUT, HISTORY, FREQUENCY=1
*NODE OUTPUT, NSET=RIGHT_EDGE
U1, RF1
*END STEP
*STEP, NAME=CYCLE_0445, NLGEOM=NO, INC=160
*STATIC
0.005, 1.0, 1.0E-08, 0.025
*BOUNDARY, AMPLITUDE=AMP_ONE_CYCLE
RIGHT_EDGE, 1, 1, 0.10
*OUTPUT, HISTORY, FREQUENCY=1
*NODE OUTPUT, NSET=RIGHT_EDGE
U1, RF1
*END STEP
*STEP, NAME=CYCLE_0446, NLGEOM=NO, INC=160
*STATIC
0.005, 1.0, 1.0E-08, 0.025
*BOUNDARY, AMPLITUDE=AMP_ONE_CYCLE
RIGHT_EDGE, 1, 1, 0.10
*OUTPUT, HISTORY, FREQUENCY=1
*NODE OUTPUT, NSET=RIGHT_EDGE
U1, RF1
*END STEP
*STEP, NAME=CYCLE_0447, NLGEOM=NO, INC=160
*STATIC
0.005, 1.0, 1.0E-08, 0.025
*BOUNDARY, AMPLITUDE=AMP_ONE_CYCLE
RIGHT_EDGE, 1, 1, 0.10
*OUTPUT, HISTORY, FREQUENCY=1
*NODE OUTPUT, NSET=RIGHT_EDGE
U1, RF1
*END STEP
*STEP, NAME=CYCLE_0448, NLGEOM=NO, INC=160
*STATIC
0.005, 1.0, 1.0E-08, 0.025
*BOUNDARY, AMPLITUDE=AMP_ONE_CYCLE
RIGHT_EDGE, 1, 1, 0.10
*OUTPUT, HISTORY, FREQUENCY=1
*NODE OUTPUT, NSET=RIGHT_EDGE
U1, RF1
*END STEP
*STEP, NAME=CYCLE_0449, NLGEOM=NO, INC=160
*STATIC
0.005, 1.0, 1.0E-08, 0.025
*BOUNDARY, AMPLITUDE=AMP_ONE_CYCLE
RIGHT_EDGE, 1, 1, 0.10
*OUTPUT, HISTORY, FREQUENCY=1
*NODE OUTPUT, NSET=RIGHT_EDGE
U1, RF1
*END STEP
*STEP, NAME=CYCLE_0450, NLGEOM=NO, INC=160
*STATIC
0.005, 1.0, 1.0E-08, 0.025
*BOUNDARY, AMPLITUDE=AMP_ONE_CYCLE
RIGHT_EDGE, 1, 1, 0.10
*OUTPUT, HISTORY, FREQUENCY=1
*NODE OUTPUT, NSET=RIGHT_EDGE
U1, RF1
*END STEP
*STEP, NAME=CYCLE_0451, NLGEOM=NO, INC=160
*STATIC
0.005, 1.0, 1.0E-08, 0.025
*BOUNDARY, AMPLITUDE=AMP_ONE_CYCLE
RIGHT_EDGE, 1, 1, 0.10
*OUTPUT, HISTORY, FREQUENCY=1
*NODE OUTPUT, NSET=RIGHT_EDGE
U1, RF1
*END STEP
*STEP, NAME=CYCLE_0452, NLGEOM=NO, INC=160
*STATIC
0.005, 1.0, 1.0E-08, 0.025
*BOUNDARY, AMPLITUDE=AMP_ONE_CYCLE
RIGHT_EDGE, 1, 1, 0.10
*OUTPUT, HISTORY, FREQUENCY=1
*NODE OUTPUT, NSET=RIGHT_EDGE
U1, RF1
*END STEP
*STEP, NAME=CYCLE_0453, NLGEOM=NO, INC=160
*STATIC
0.005, 1.0, 1.0E-08, 0.025
*BOUNDARY, AMPLITUDE=AMP_ONE_CYCLE
RIGHT_EDGE, 1, 1, 0.10
*OUTPUT, HISTORY, FREQUENCY=1
*NODE OUTPUT, NSET=RIGHT_EDGE
U1, RF1
*END STEP
*STEP, NAME=CYCLE_0454, NLGEOM=NO, INC=160
*STATIC
0.005, 1.0, 1.0E-08, 0.025
*BOUNDARY, AMPLITUDE=AMP_ONE_CYCLE
RIGHT_EDGE, 1, 1, 0.10
*OUTPUT, HISTORY, FREQUENCY=1
*NODE OUTPUT, NSET=RIGHT_EDGE
U1, RF1
*END STEP
*STEP, NAME=CYCLE_0455, NLGEOM=NO, INC=160
*STATIC
0.005, 1.0, 1.0E-08, 0.025
*BOUNDARY, AMPLITUDE=AMP_ONE_CYCLE
RIGHT_EDGE, 1, 1, 0.10
*OUTPUT, HISTORY, FREQUENCY=1
*NODE OUTPUT, NSET=RIGHT_EDGE
U1, RF1
*END STEP
*STEP, NAME=CYCLE_0456, NLGEOM=NO, INC=160
*STATIC
0.005, 1.0, 1.0E-08, 0.025
*BOUNDARY, AMPLITUDE=AMP_ONE_CYCLE
RIGHT_EDGE, 1, 1, 0.10
*OUTPUT, HISTORY, FREQUENCY=1
*NODE OUTPUT, NSET=RIGHT_EDGE
U1, RF1
*END STEP
*STEP, NAME=CYCLE_0457, NLGEOM=NO, INC=160
*STATIC
0.005, 1.0, 1.0E-08, 0.025
*BOUNDARY, AMPLITUDE=AMP_ONE_CYCLE
RIGHT_EDGE, 1, 1, 0.10
*OUTPUT, HISTORY, FREQUENCY=1
*NODE OUTPUT, NSET=RIGHT_EDGE
U1, RF1
*END STEP
*STEP, NAME=CYCLE_0458, NLGEOM=NO, INC=160
*STATIC
0.005, 1.0, 1.0E-08, 0.025
*BOUNDARY, AMPLITUDE=AMP_ONE_CYCLE
RIGHT_EDGE, 1, 1, 0.10
*OUTPUT, HISTORY, FREQUENCY=1
*NODE OUTPUT, NSET=RIGHT_EDGE
U1, RF1
*END STEP
*STEP, NAME=CYCLE_0459, NLGEOM=NO, INC=160
*STATIC
0.005, 1.0, 1.0E-08, 0.025
*BOUNDARY, AMPLITUDE=AMP_ONE_CYCLE
RIGHT_EDGE, 1, 1, 0.10
*OUTPUT, HISTORY, FREQUENCY=1
*NODE OUTPUT, NSET=RIGHT_EDGE
U1, RF1
*END STEP
*STEP, NAME=CYCLE_0460, NLGEOM=NO, INC=160
*STATIC
0.005, 1.0, 1.0E-08, 0.025
*BOUNDARY, AMPLITUDE=AMP_ONE_CYCLE
RIGHT_EDGE, 1, 1, 0.10
*OUTPUT, HISTORY, FREQUENCY=1
*NODE OUTPUT, NSET=RIGHT_EDGE
U1, RF1
*END STEP
*STEP, NAME=CYCLE_0461, NLGEOM=NO, INC=160
*STATIC
0.005, 1.0, 1.0E-08, 0.025
*BOUNDARY, AMPLITUDE=AMP_ONE_CYCLE
RIGHT_EDGE, 1, 1, 0.10
*OUTPUT, HISTORY, FREQUENCY=1
*NODE OUTPUT, NSET=RIGHT_EDGE
U1, RF1
*END STEP
*STEP, NAME=CYCLE_0462, NLGEOM=NO, INC=160
*STATIC
0.005, 1.0, 1.0E-08, 0.025
*BOUNDARY, AMPLITUDE=AMP_ONE_CYCLE
RIGHT_EDGE, 1, 1, 0.10
*OUTPUT, HISTORY, FREQUENCY=1
*NODE OUTPUT, NSET=RIGHT_EDGE
U1, RF1
*END STEP
*STEP, NAME=CYCLE_0463, NLGEOM=NO, INC=160
*STATIC
0.005, 1.0, 1.0E-08, 0.025
*BOUNDARY, AMPLITUDE=AMP_ONE_CYCLE
RIGHT_EDGE, 1, 1, 0.10
*OUTPUT, HISTORY, FREQUENCY=1
*NODE OUTPUT, NSET=RIGHT_EDGE
U1, RF1
*END STEP
*STEP, NAME=CYCLE_0464, NLGEOM=NO, INC=160
*STATIC
0.005, 1.0, 1.0E-08, 0.025
*BOUNDARY, AMPLITUDE=AMP_ONE_CYCLE
RIGHT_EDGE, 1, 1, 0.10
*OUTPUT, HISTORY, FREQUENCY=1
*NODE OUTPUT, NSET=RIGHT_EDGE
U1, RF1
*END STEP
*STEP, NAME=CYCLE_0465, NLGEOM=NO, INC=160
*STATIC
0.005, 1.0, 1.0E-08, 0.025
*BOUNDARY, AMPLITUDE=AMP_ONE_CYCLE
RIGHT_EDGE, 1, 1, 0.10
*OUTPUT, HISTORY, FREQUENCY=1
*NODE OUTPUT, NSET=RIGHT_EDGE
U1, RF1
*END STEP
*STEP, NAME=CYCLE_0466, NLGEOM=NO, INC=160
*STATIC
0.005, 1.0, 1.0E-08, 0.025
*BOUNDARY, AMPLITUDE=AMP_ONE_CYCLE
RIGHT_EDGE, 1, 1, 0.10
*OUTPUT, HISTORY, FREQUENCY=1
*NODE OUTPUT, NSET=RIGHT_EDGE
U1, RF1
*END STEP
*STEP, NAME=CYCLE_0467, NLGEOM=NO, INC=160
*STATIC
0.005, 1.0, 1.0E-08, 0.025
*BOUNDARY, AMPLITUDE=AMP_ONE_CYCLE
RIGHT_EDGE, 1, 1, 0.10
*OUTPUT, HISTORY, FREQUENCY=1
*NODE OUTPUT, NSET=RIGHT_EDGE
U1, RF1
*END STEP
*STEP, NAME=CYCLE_0468, NLGEOM=NO, INC=160
*STATIC
0.005, 1.0, 1.0E-08, 0.025
*BOUNDARY, AMPLITUDE=AMP_ONE_CYCLE
RIGHT_EDGE, 1, 1, 0.10
*OUTPUT, HISTORY, FREQUENCY=1
*NODE OUTPUT, NSET=RIGHT_EDGE
U1, RF1
*END STEP
*STEP, NAME=CYCLE_0469, NLGEOM=NO, INC=160
*STATIC
0.005, 1.0, 1.0E-08, 0.025
*BOUNDARY, AMPLITUDE=AMP_ONE_CYCLE
RIGHT_EDGE, 1, 1, 0.10
*OUTPUT, HISTORY, FREQUENCY=1
*NODE OUTPUT, NSET=RIGHT_EDGE
U1, RF1
*END STEP
*STEP, NAME=CYCLE_0470, NLGEOM=NO, INC=160
*STATIC
0.005, 1.0, 1.0E-08, 0.025
*BOUNDARY, AMPLITUDE=AMP_ONE_CYCLE
RIGHT_EDGE, 1, 1, 0.10
*OUTPUT, HISTORY, FREQUENCY=1
*NODE OUTPUT, NSET=RIGHT_EDGE
U1, RF1
*END STEP
*STEP, NAME=CYCLE_0471, NLGEOM=NO, INC=160
*STATIC
0.005, 1.0, 1.0E-08, 0.025
*BOUNDARY, AMPLITUDE=AMP_ONE_CYCLE
RIGHT_EDGE, 1, 1, 0.10
*OUTPUT, HISTORY, FREQUENCY=1
*NODE OUTPUT, NSET=RIGHT_EDGE
U1, RF1
*END STEP
*STEP, NAME=CYCLE_0472, NLGEOM=NO, INC=160
*STATIC
0.005, 1.0, 1.0E-08, 0.025
*BOUNDARY, AMPLITUDE=AMP_ONE_CYCLE
RIGHT_EDGE, 1, 1, 0.10
*OUTPUT, HISTORY, FREQUENCY=1
*NODE OUTPUT, NSET=RIGHT_EDGE
U1, RF1
*END STEP
*STEP, NAME=CYCLE_0473, NLGEOM=NO, INC=160
*STATIC
0.005, 1.0, 1.0E-08, 0.025
*BOUNDARY, AMPLITUDE=AMP_ONE_CYCLE
RIGHT_EDGE, 1, 1, 0.10
*OUTPUT, HISTORY, FREQUENCY=1
*NODE OUTPUT, NSET=RIGHT_EDGE
U1, RF1
*END STEP
*STEP, NAME=CYCLE_0474, NLGEOM=NO, INC=160
*STATIC
0.005, 1.0, 1.0E-08, 0.025
*BOUNDARY, AMPLITUDE=AMP_ONE_CYCLE
RIGHT_EDGE, 1, 1, 0.10
*OUTPUT, HISTORY, FREQUENCY=1
*NODE OUTPUT, NSET=RIGHT_EDGE
U1, RF1
*END STEP
*STEP, NAME=CYCLE_0475, NLGEOM=NO, INC=160
*STATIC
0.005, 1.0, 1.0E-08, 0.025
*BOUNDARY, AMPLITUDE=AMP_ONE_CYCLE
RIGHT_EDGE, 1, 1, 0.10
*OUTPUT, HISTORY, FREQUENCY=1
*NODE OUTPUT, NSET=RIGHT_EDGE
U1, RF1
*END STEP
*STEP, NAME=CYCLE_0476, NLGEOM=NO, INC=160
*STATIC
0.005, 1.0, 1.0E-08, 0.025
*BOUNDARY, AMPLITUDE=AMP_ONE_CYCLE
RIGHT_EDGE, 1, 1, 0.10
*OUTPUT, HISTORY, FREQUENCY=1
*NODE OUTPUT, NSET=RIGHT_EDGE
U1, RF1
*END STEP
*STEP, NAME=CYCLE_0477, NLGEOM=NO, INC=160
*STATIC
0.005, 1.0, 1.0E-08, 0.025
*BOUNDARY, AMPLITUDE=AMP_ONE_CYCLE
RIGHT_EDGE, 1, 1, 0.10
*OUTPUT, HISTORY, FREQUENCY=1
*NODE OUTPUT, NSET=RIGHT_EDGE
U1, RF1
*END STEP
*STEP, NAME=CYCLE_0478, NLGEOM=NO, INC=160
*STATIC
0.005, 1.0, 1.0E-08, 0.025
*BOUNDARY, AMPLITUDE=AMP_ONE_CYCLE
RIGHT_EDGE, 1, 1, 0.10
*OUTPUT, HISTORY, FREQUENCY=1
*NODE OUTPUT, NSET=RIGHT_EDGE
U1, RF1
*END STEP
*STEP, NAME=CYCLE_0479, NLGEOM=NO, INC=160
*STATIC
0.005, 1.0, 1.0E-08, 0.025
*BOUNDARY, AMPLITUDE=AMP_ONE_CYCLE
RIGHT_EDGE, 1, 1, 0.10
*OUTPUT, HISTORY, FREQUENCY=1
*NODE OUTPUT, NSET=RIGHT_EDGE
U1, RF1
*END STEP
*STEP, NAME=CYCLE_0480, NLGEOM=NO, INC=160
*STATIC
0.005, 1.0, 1.0E-08, 0.025
*BOUNDARY, AMPLITUDE=AMP_ONE_CYCLE
RIGHT_EDGE, 1, 1, 0.10
*OUTPUT, HISTORY, FREQUENCY=1
*NODE OUTPUT, NSET=RIGHT_EDGE
U1, RF1
*END STEP
*STEP, NAME=CYCLE_0481, NLGEOM=NO, INC=160
*STATIC
0.005, 1.0, 1.0E-08, 0.025
*BOUNDARY, AMPLITUDE=AMP_ONE_CYCLE
RIGHT_EDGE, 1, 1, 0.10
*OUTPUT, HISTORY, FREQUENCY=1
*NODE OUTPUT, NSET=RIGHT_EDGE
U1, RF1
*END STEP
*STEP, NAME=CYCLE_0482, NLGEOM=NO, INC=160
*STATIC
0.005, 1.0, 1.0E-08, 0.025
*BOUNDARY, AMPLITUDE=AMP_ONE_CYCLE
RIGHT_EDGE, 1, 1, 0.10
*OUTPUT, HISTORY, FREQUENCY=1
*NODE OUTPUT, NSET=RIGHT_EDGE
U1, RF1
*END STEP
*STEP, NAME=CYCLE_0483, NLGEOM=NO, INC=160
*STATIC
0.005, 1.0, 1.0E-08, 0.025
*BOUNDARY, AMPLITUDE=AMP_ONE_CYCLE
RIGHT_EDGE, 1, 1, 0.10
*OUTPUT, HISTORY, FREQUENCY=1
*NODE OUTPUT, NSET=RIGHT_EDGE
U1, RF1
*END STEP
*STEP, NAME=CYCLE_0484, NLGEOM=NO, INC=160
*STATIC
0.005, 1.0, 1.0E-08, 0.025
*BOUNDARY, AMPLITUDE=AMP_ONE_CYCLE
RIGHT_EDGE, 1, 1, 0.10
*OUTPUT, HISTORY, FREQUENCY=1
*NODE OUTPUT, NSET=RIGHT_EDGE
U1, RF1
*END STEP
*STEP, NAME=CYCLE_0485, NLGEOM=NO, INC=160
*STATIC
0.005, 1.0, 1.0E-08, 0.025
*BOUNDARY, AMPLITUDE=AMP_ONE_CYCLE
RIGHT_EDGE, 1, 1, 0.10
*OUTPUT, HISTORY, FREQUENCY=1
*NODE OUTPUT, NSET=RIGHT_EDGE
U1, RF1
*END STEP
*STEP, NAME=CYCLE_0486, NLGEOM=NO, INC=160
*STATIC
0.005, 1.0, 1.0E-08, 0.025
*BOUNDARY, AMPLITUDE=AMP_ONE_CYCLE
RIGHT_EDGE, 1, 1, 0.10
*OUTPUT, HISTORY, FREQUENCY=1
*NODE OUTPUT, NSET=RIGHT_EDGE
U1, RF1
*END STEP
*STEP, NAME=CYCLE_0487, NLGEOM=NO, INC=160
*STATIC
0.005, 1.0, 1.0E-08, 0.025
*BOUNDARY, AMPLITUDE=AMP_ONE_CYCLE
RIGHT_EDGE, 1, 1, 0.10
*OUTPUT, HISTORY, FREQUENCY=1
*NODE OUTPUT, NSET=RIGHT_EDGE
U1, RF1
*END STEP
*STEP, NAME=CYCLE_0488, NLGEOM=NO, INC=160
*STATIC
0.005, 1.0, 1.0E-08, 0.025
*BOUNDARY, AMPLITUDE=AMP_ONE_CYCLE
RIGHT_EDGE, 1, 1, 0.10
*OUTPUT, HISTORY, FREQUENCY=1
*NODE OUTPUT, NSET=RIGHT_EDGE
U1, RF1
*END STEP
*STEP, NAME=CYCLE_0489, NLGEOM=NO, INC=160
*STATIC
0.005, 1.0, 1.0E-08, 0.025
*BOUNDARY, AMPLITUDE=AMP_ONE_CYCLE
RIGHT_EDGE, 1, 1, 0.10
*OUTPUT, HISTORY, FREQUENCY=1
*NODE OUTPUT, NSET=RIGHT_EDGE
U1, RF1
*END STEP
*STEP, NAME=CYCLE_0490, NLGEOM=NO, INC=160
*STATIC
0.005, 1.0, 1.0E-08, 0.025
*BOUNDARY, AMPLITUDE=AMP_ONE_CYCLE
RIGHT_EDGE, 1, 1, 0.10
*OUTPUT, HISTORY, FREQUENCY=1
*NODE OUTPUT, NSET=RIGHT_EDGE
U1, RF1
*END STEP
*STEP, NAME=CYCLE_0491, NLGEOM=NO, INC=160
*STATIC
0.005, 1.0, 1.0E-08, 0.025
*BOUNDARY, AMPLITUDE=AMP_ONE_CYCLE
RIGHT_EDGE, 1, 1, 0.10
*OUTPUT, HISTORY, FREQUENCY=1
*NODE OUTPUT, NSET=RIGHT_EDGE
U1, RF1
*END STEP
*STEP, NAME=CYCLE_0492, NLGEOM=NO, INC=160
*STATIC
0.005, 1.0, 1.0E-08, 0.025
*BOUNDARY, AMPLITUDE=AMP_ONE_CYCLE
RIGHT_EDGE, 1, 1, 0.10
*OUTPUT, HISTORY, FREQUENCY=1
*NODE OUTPUT, NSET=RIGHT_EDGE
U1, RF1
*END STEP
*STEP, NAME=CYCLE_0493, NLGEOM=NO, INC=160
*STATIC
0.005, 1.0, 1.0E-08, 0.025
*BOUNDARY, AMPLITUDE=AMP_ONE_CYCLE
RIGHT_EDGE, 1, 1, 0.10
*OUTPUT, HISTORY, FREQUENCY=1
*NODE OUTPUT, NSET=RIGHT_EDGE
U1, RF1
*END STEP
*STEP, NAME=CYCLE_0494, NLGEOM=NO, INC=160
*STATIC
0.005, 1.0, 1.0E-08, 0.025
*BOUNDARY, AMPLITUDE=AMP_ONE_CYCLE
RIGHT_EDGE, 1, 1, 0.10
*OUTPUT, HISTORY, FREQUENCY=1
*NODE OUTPUT, NSET=RIGHT_EDGE
U1, RF1
*END STEP
*STEP, NAME=CYCLE_0495, NLGEOM=NO, INC=160
*STATIC
0.005, 1.0, 1.0E-08, 0.025
*BOUNDARY, AMPLITUDE=AMP_ONE_CYCLE
RIGHT_EDGE, 1, 1, 0.10
*OUTPUT, HISTORY, FREQUENCY=1
*NODE OUTPUT, NSET=RIGHT_EDGE
U1, RF1
*END STEP
*STEP, NAME=CYCLE_0496, NLGEOM=NO, INC=160
*STATIC
0.005, 1.0, 1.0E-08, 0.025
*BOUNDARY, AMPLITUDE=AMP_ONE_CYCLE
RIGHT_EDGE, 1, 1, 0.10
*OUTPUT, HISTORY, FREQUENCY=1
*NODE OUTPUT, NSET=RIGHT_EDGE
U1, RF1
*END STEP
*STEP, NAME=CYCLE_0497, NLGEOM=NO, INC=160
*STATIC
0.005, 1.0, 1.0E-08, 0.025
*BOUNDARY, AMPLITUDE=AMP_ONE_CYCLE
RIGHT_EDGE, 1, 1, 0.10
*OUTPUT, HISTORY, FREQUENCY=1
*NODE OUTPUT, NSET=RIGHT_EDGE
U1, RF1
*END STEP
*STEP, NAME=CYCLE_0498, NLGEOM=NO, INC=160
*STATIC
0.005, 1.0, 1.0E-08, 0.025
*BOUNDARY, AMPLITUDE=AMP_ONE_CYCLE
RIGHT_EDGE, 1, 1, 0.10
*OUTPUT, HISTORY, FREQUENCY=1
*NODE OUTPUT, NSET=RIGHT_EDGE
U1, RF1
*END STEP
*STEP, NAME=CYCLE_0499, NLGEOM=NO, INC=160
*STATIC
0.005, 1.0, 1.0E-08, 0.025
*BOUNDARY, AMPLITUDE=AMP_ONE_CYCLE
RIGHT_EDGE, 1, 1, 0.10
*OUTPUT, HISTORY, FREQUENCY=1
*NODE OUTPUT, NSET=RIGHT_EDGE
U1, RF1
*END STEP
*STEP, NAME=CYCLE_0500, NLGEOM=NO, INC=160
*STATIC
0.005, 1.0, 1.0E-08, 0.025
*RESTART, WRITE, FREQUENCY=1
*BOUNDARY, AMPLITUDE=AMP_ONE_CYCLE
RIGHT_EDGE, 1, 1, 0.10
*OUTPUT, HISTORY, FREQUENCY=1
*NODE OUTPUT, NSET=RIGHT_EDGE
U1, RF1
*OUTPUT, FIELD, NUMBER INTERVAL=4
*NODE OUTPUT
U, RF
*ELEMENT OUTPUT
S, SDV
*END STEP
