** Stage 16N-R4G source split solve: R4G4_split_250_to_270_to_500
** Generates target-cycle native restart files for replay continuation.
*HEADING
Stage 16N-R4G source 250 to 270
*RESTART, READ, STEP=250, INC=58
*STEP, NAME=CYCLE_0251, NLGEOM=NO, INC=160
*STATIC
0.005, 1.0, 1.0E-08, 0.025
*BOUNDARY, AMPLITUDE=AMP_ONE_CYCLE
RIGHT_EDGE, 1, 1, 0.10
*OUTPUT, HISTORY, FREQUENCY=1
*NODE OUTPUT, NSET=RIGHT_EDGE
U1, RF1
*END STEP
*STEP, NAME=CYCLE_0252, NLGEOM=NO, INC=160
*STATIC
0.005, 1.0, 1.0E-08, 0.025
*BOUNDARY, AMPLITUDE=AMP_ONE_CYCLE
RIGHT_EDGE, 1, 1, 0.10
*OUTPUT, HISTORY, FREQUENCY=1
*NODE OUTPUT, NSET=RIGHT_EDGE
U1, RF1
*END STEP
*STEP, NAME=CYCLE_0253, NLGEOM=NO, INC=160
*STATIC
0.005, 1.0, 1.0E-08, 0.025
*BOUNDARY, AMPLITUDE=AMP_ONE_CYCLE
RIGHT_EDGE, 1, 1, 0.10
*OUTPUT, HISTORY, FREQUENCY=1
*NODE OUTPUT, NSET=RIGHT_EDGE
U1, RF1
*END STEP
*STEP, NAME=CYCLE_0254, NLGEOM=NO, INC=160
*STATIC
0.005, 1.0, 1.0E-08, 0.025
*BOUNDARY, AMPLITUDE=AMP_ONE_CYCLE
RIGHT_EDGE, 1, 1, 0.10
*OUTPUT, HISTORY, FREQUENCY=1
*NODE OUTPUT, NSET=RIGHT_EDGE
U1, RF1
*END STEP
*STEP, NAME=CYCLE_0255, NLGEOM=NO, INC=160
*STATIC
0.005, 1.0, 1.0E-08, 0.025
*BOUNDARY, AMPLITUDE=AMP_ONE_CYCLE
RIGHT_EDGE, 1, 1, 0.10
*OUTPUT, HISTORY, FREQUENCY=1
*NODE OUTPUT, NSET=RIGHT_EDGE
U1, RF1
*END STEP
*STEP, NAME=CYCLE_0256, NLGEOM=NO, INC=160
*STATIC
0.005, 1.0, 1.0E-08, 0.025
*BOUNDARY, AMPLITUDE=AMP_ONE_CYCLE
RIGHT_EDGE, 1, 1, 0.10
*OUTPUT, HISTORY, FREQUENCY=1
*NODE OUTPUT, NSET=RIGHT_EDGE
U1, RF1
*END STEP
*STEP, NAME=CYCLE_0257, NLGEOM=NO, INC=160
*STATIC
0.005, 1.0, 1.0E-08, 0.025
*BOUNDARY, AMPLITUDE=AMP_ONE_CYCLE
RIGHT_EDGE, 1, 1, 0.10
*OUTPUT, HISTORY, FREQUENCY=1
*NODE OUTPUT, NSET=RIGHT_EDGE
U1, RF1
*END STEP
*STEP, NAME=CYCLE_0258, NLGEOM=NO, INC=160
*STATIC
0.005, 1.0, 1.0E-08, 0.025
*BOUNDARY, AMPLITUDE=AMP_ONE_CYCLE
RIGHT_EDGE, 1, 1, 0.10
*OUTPUT, HISTORY, FREQUENCY=1
*NODE OUTPUT, NSET=RIGHT_EDGE
U1, RF1
*END STEP
*STEP, NAME=CYCLE_0259, NLGEOM=NO, INC=160
*STATIC
0.005, 1.0, 1.0E-08, 0.025
*BOUNDARY, AMPLITUDE=AMP_ONE_CYCLE
RIGHT_EDGE, 1, 1, 0.10
*OUTPUT, HISTORY, FREQUENCY=1
*NODE OUTPUT, NSET=RIGHT_EDGE
U1, RF1
*END STEP
*STEP, NAME=CYCLE_0260, NLGEOM=NO, INC=160
*STATIC
0.005, 1.0, 1.0E-08, 0.025
*BOUNDARY, AMPLITUDE=AMP_ONE_CYCLE
RIGHT_EDGE, 1, 1, 0.10
*OUTPUT, HISTORY, FREQUENCY=1
*NODE OUTPUT, NSET=RIGHT_EDGE
U1, RF1
*END STEP
*STEP, NAME=CYCLE_0261, NLGEOM=NO, INC=160
*STATIC
0.005, 1.0, 1.0E-08, 0.025
*BOUNDARY, AMPLITUDE=AMP_ONE_CYCLE
RIGHT_EDGE, 1, 1, 0.10
*OUTPUT, HISTORY, FREQUENCY=1
*NODE OUTPUT, NSET=RIGHT_EDGE
U1, RF1
*END STEP
*STEP, NAME=CYCLE_0262, NLGEOM=NO, INC=160
*STATIC
0.005, 1.0, 1.0E-08, 0.025
*BOUNDARY, AMPLITUDE=AMP_ONE_CYCLE
RIGHT_EDGE, 1, 1, 0.10
*OUTPUT, HISTORY, FREQUENCY=1
*NODE OUTPUT, NSET=RIGHT_EDGE
U1, RF1
*END STEP
*STEP, NAME=CYCLE_0263, NLGEOM=NO, INC=160
*STATIC
0.005, 1.0, 1.0E-08, 0.025
*BOUNDARY, AMPLITUDE=AMP_ONE_CYCLE
RIGHT_EDGE, 1, 1, 0.10
*OUTPUT, HISTORY, FREQUENCY=1
*NODE OUTPUT, NSET=RIGHT_EDGE
U1, RF1
*END STEP
*STEP, NAME=CYCLE_0264, NLGEOM=NO, INC=160
*STATIC
0.005, 1.0, 1.0E-08, 0.025
*BOUNDARY, AMPLITUDE=AMP_ONE_CYCLE
RIGHT_EDGE, 1, 1, 0.10
*OUTPUT, HISTORY, FREQUENCY=1
*NODE OUTPUT, NSET=RIGHT_EDGE
U1, RF1
*END STEP
*STEP, NAME=CYCLE_0265, NLGEOM=NO, INC=160
*STATIC
0.005, 1.0, 1.0E-08, 0.025
*BOUNDARY, AMPLITUDE=AMP_ONE_CYCLE
RIGHT_EDGE, 1, 1, 0.10
*OUTPUT, HISTORY, FREQUENCY=1
*NODE OUTPUT, NSET=RIGHT_EDGE
U1, RF1
*END STEP
*STEP, NAME=CYCLE_0266, NLGEOM=NO, INC=160
*STATIC
0.005, 1.0, 1.0E-08, 0.025
*BOUNDARY, AMPLITUDE=AMP_ONE_CYCLE
RIGHT_EDGE, 1, 1, 0.10
*OUTPUT, HISTORY, FREQUENCY=1
*NODE OUTPUT, NSET=RIGHT_EDGE
U1, RF1
*END STEP
*STEP, NAME=CYCLE_0267, NLGEOM=NO, INC=160
*STATIC
0.005, 1.0, 1.0E-08, 0.025
*BOUNDARY, AMPLITUDE=AMP_ONE_CYCLE
RIGHT_EDGE, 1, 1, 0.10
*OUTPUT, HISTORY, FREQUENCY=1
*NODE OUTPUT, NSET=RIGHT_EDGE
U1, RF1
*END STEP
*STEP, NAME=CYCLE_0268, NLGEOM=NO, INC=160
*STATIC
0.005, 1.0, 1.0E-08, 0.025
*BOUNDARY, AMPLITUDE=AMP_ONE_CYCLE
RIGHT_EDGE, 1, 1, 0.10
*OUTPUT, HISTORY, FREQUENCY=1
*NODE OUTPUT, NSET=RIGHT_EDGE
U1, RF1
*END STEP
*STEP, NAME=CYCLE_0269, NLGEOM=NO, INC=160
*STATIC
0.005, 1.0, 1.0E-08, 0.025
*BOUNDARY, AMPLITUDE=AMP_ONE_CYCLE
RIGHT_EDGE, 1, 1, 0.10
*OUTPUT, HISTORY, FREQUENCY=1
*NODE OUTPUT, NSET=RIGHT_EDGE
U1, RF1
*END STEP
*STEP, NAME=CYCLE_0270, NLGEOM=NO, INC=160
*STATIC
0.005, 1.0, 1.0E-08, 0.025
*RESTART, WRITE, FREQUENCY=1
*BOUNDARY, AMPLITUDE=AMP_ONE_CYCLE
RIGHT_EDGE, 1, 1, 0.10
*OUTPUT, HISTORY, FREQUENCY=1
*NODE OUTPUT, NSET=RIGHT_EDGE
U1, RF1
*OUTPUT, FIELD, NUMBER INTERVAL=4
*NODE OUTPUT
U, RF
*ELEMENT OUTPUT
S, SDV
*END STEP
