** Stage 16N-R4H source split solve: R4H2_source_250_to_281_restart_280_to_500
** Writes restart records through the interior target cycle.
*HEADING
Stage 16N-R4H source 250 to 281
*RESTART, READ, STEP=250, INC=58
*STEP, NAME=CYCLE_0251, NLGEOM=NO, INC=160
*STATIC
0.005, 1.0, 1.0E-08, 0.025
*RESTART, WRITE, FREQUENCY=1
*BOUNDARY, AMPLITUDE=AMP_ONE_CYCLE
RIGHT_EDGE, 1, 1, 0.10
*OUTPUT, HISTORY, FREQUENCY=1
*NODE OUTPUT, NSET=RIGHT_EDGE
U1, RF1
*END STEP
*STEP, NAME=CYCLE_0252, NLGEOM=NO, INC=160
*STATIC
0.005, 1.0, 1.0E-08, 0.025
*RESTART, WRITE, FREQUENCY=1
*BOUNDARY, AMPLITUDE=AMP_ONE_CYCLE
RIGHT_EDGE, 1, 1, 0.10
*OUTPUT, HISTORY, FREQUENCY=1
*NODE OUTPUT, NSET=RIGHT_EDGE
U1, RF1
*END STEP
*STEP, NAME=CYCLE_0253, NLGEOM=NO, INC=160
*STATIC
0.005, 1.0, 1.0E-08, 0.025
*RESTART, WRITE, FREQUENCY=1
*BOUNDARY, AMPLITUDE=AMP_ONE_CYCLE
RIGHT_EDGE, 1, 1, 0.10
*OUTPUT, HISTORY, FREQUENCY=1
*NODE OUTPUT, NSET=RIGHT_EDGE
U1, RF1
*END STEP
*STEP, NAME=CYCLE_0254, NLGEOM=NO, INC=160
*STATIC
0.005, 1.0, 1.0E-08, 0.025
*RESTART, WRITE, FREQUENCY=1
*BOUNDARY, AMPLITUDE=AMP_ONE_CYCLE
RIGHT_EDGE, 1, 1, 0.10
*OUTPUT, HISTORY, FREQUENCY=1
*NODE OUTPUT, NSET=RIGHT_EDGE
U1, RF1
*END STEP
*STEP, NAME=CYCLE_0255, NLGEOM=NO, INC=160
*STATIC
0.005, 1.0, 1.0E-08, 0.025
*RESTART, WRITE, FREQUENCY=1
*BOUNDARY, AMPLITUDE=AMP_ONE_CYCLE
RIGHT_EDGE, 1, 1, 0.10
*OUTPUT, HISTORY, FREQUENCY=1
*NODE OUTPUT, NSET=RIGHT_EDGE
U1, RF1
*END STEP
*STEP, NAME=CYCLE_0256, NLGEOM=NO, INC=160
*STATIC
0.005, 1.0, 1.0E-08, 0.025
*RESTART, WRITE, FREQUENCY=1
*BOUNDARY, AMPLITUDE=AMP_ONE_CYCLE
RIGHT_EDGE, 1, 1, 0.10
*OUTPUT, HISTORY, FREQUENCY=1
*NODE OUTPUT, NSET=RIGHT_EDGE
U1, RF1
*END STEP
*STEP, NAME=CYCLE_0257, NLGEOM=NO, INC=160
*STATIC
0.005, 1.0, 1.0E-08, 0.025
*RESTART, WRITE, FREQUENCY=1
*BOUNDARY, AMPLITUDE=AMP_ONE_CYCLE
RIGHT_EDGE, 1, 1, 0.10
*OUTPUT, HISTORY, FREQUENCY=1
*NODE OUTPUT, NSET=RIGHT_EDGE
U1, RF1
*END STEP
*STEP, NAME=CYCLE_0258, NLGEOM=NO, INC=160
*STATIC
0.005, 1.0, 1.0E-08, 0.025
*RESTART, WRITE, FREQUENCY=1
*BOUNDARY, AMPLITUDE=AMP_ONE_CYCLE
RIGHT_EDGE, 1, 1, 0.10
*OUTPUT, HISTORY, FREQUENCY=1
*NODE OUTPUT, NSET=RIGHT_EDGE
U1, RF1
*END STEP
*STEP, NAME=CYCLE_0259, NLGEOM=NO, INC=160
*STATIC
0.005, 1.0, 1.0E-08, 0.025
*RESTART, WRITE, FREQUENCY=1
*BOUNDARY, AMPLITUDE=AMP_ONE_CYCLE
RIGHT_EDGE, 1, 1, 0.10
*OUTPUT, HISTORY, FREQUENCY=1
*NODE OUTPUT, NSET=RIGHT_EDGE
U1, RF1
*END STEP
*STEP, NAME=CYCLE_0260, NLGEOM=NO, INC=160
*STATIC
0.005, 1.0, 1.0E-08, 0.025
*RESTART, WRITE, FREQUENCY=1
*BOUNDARY, AMPLITUDE=AMP_ONE_CYCLE
RIGHT_EDGE, 1, 1, 0.10
*OUTPUT, HISTORY, FREQUENCY=1
*NODE OUTPUT, NSET=RIGHT_EDGE
U1, RF1
*END STEP
*STEP, NAME=CYCLE_0261, NLGEOM=NO, INC=160
*STATIC
0.005, 1.0, 1.0E-08, 0.025
*RESTART, WRITE, FREQUENCY=1
*BOUNDARY, AMPLITUDE=AMP_ONE_CYCLE
RIGHT_EDGE, 1, 1, 0.10
*OUTPUT, HISTORY, FREQUENCY=1
*NODE OUTPUT, NSET=RIGHT_EDGE
U1, RF1
*END STEP
*STEP, NAME=CYCLE_0262, NLGEOM=NO, INC=160
*STATIC
0.005, 1.0, 1.0E-08, 0.025
*RESTART, WRITE, FREQUENCY=1
*BOUNDARY, AMPLITUDE=AMP_ONE_CYCLE
RIGHT_EDGE, 1, 1, 0.10
*OUTPUT, HISTORY, FREQUENCY=1
*NODE OUTPUT, NSET=RIGHT_EDGE
U1, RF1
*END STEP
*STEP, NAME=CYCLE_0263, NLGEOM=NO, INC=160
*STATIC
0.005, 1.0, 1.0E-08, 0.025
*RESTART, WRITE, FREQUENCY=1
*BOUNDARY, AMPLITUDE=AMP_ONE_CYCLE
RIGHT_EDGE, 1, 1, 0.10
*OUTPUT, HISTORY, FREQUENCY=1
*NODE OUTPUT, NSET=RIGHT_EDGE
U1, RF1
*END STEP
*STEP, NAME=CYCLE_0264, NLGEOM=NO, INC=160
*STATIC
0.005, 1.0, 1.0E-08, 0.025
*RESTART, WRITE, FREQUENCY=1
*BOUNDARY, AMPLITUDE=AMP_ONE_CYCLE
RIGHT_EDGE, 1, 1, 0.10
*OUTPUT, HISTORY, FREQUENCY=1
*NODE OUTPUT, NSET=RIGHT_EDGE
U1, RF1
*END STEP
*STEP, NAME=CYCLE_0265, NLGEOM=NO, INC=160
*STATIC
0.005, 1.0, 1.0E-08, 0.025
*RESTART, WRITE, FREQUENCY=1
*BOUNDARY, AMPLITUDE=AMP_ONE_CYCLE
RIGHT_EDGE, 1, 1, 0.10
*OUTPUT, HISTORY, FREQUENCY=1
*NODE OUTPUT, NSET=RIGHT_EDGE
U1, RF1
*END STEP
*STEP, NAME=CYCLE_0266, NLGEOM=NO, INC=160
*STATIC
0.005, 1.0, 1.0E-08, 0.025
*RESTART, WRITE, FREQUENCY=1
*BOUNDARY, AMPLITUDE=AMP_ONE_CYCLE
RIGHT_EDGE, 1, 1, 0.10
*OUTPUT, HISTORY, FREQUENCY=1
*NODE OUTPUT, NSET=RIGHT_EDGE
U1, RF1
*END STEP
*STEP, NAME=CYCLE_0267, NLGEOM=NO, INC=160
*STATIC
0.005, 1.0, 1.0E-08, 0.025
*RESTART, WRITE, FREQUENCY=1
*BOUNDARY, AMPLITUDE=AMP_ONE_CYCLE
RIGHT_EDGE, 1, 1, 0.10
*OUTPUT, HISTORY, FREQUENCY=1
*NODE OUTPUT, NSET=RIGHT_EDGE
U1, RF1
*END STEP
*STEP, NAME=CYCLE_0268, NLGEOM=NO, INC=160
*STATIC
0.005, 1.0, 1.0E-08, 0.025
*RESTART, WRITE, FREQUENCY=1
*BOUNDARY, AMPLITUDE=AMP_ONE_CYCLE
RIGHT_EDGE, 1, 1, 0.10
*OUTPUT, HISTORY, FREQUENCY=1
*NODE OUTPUT, NSET=RIGHT_EDGE
U1, RF1
*END STEP
*STEP, NAME=CYCLE_0269, NLGEOM=NO, INC=160
*STATIC
0.005, 1.0, 1.0E-08, 0.025
*RESTART, WRITE, FREQUENCY=1
*BOUNDARY, AMPLITUDE=AMP_ONE_CYCLE
RIGHT_EDGE, 1, 1, 0.10
*OUTPUT, HISTORY, FREQUENCY=1
*NODE OUTPUT, NSET=RIGHT_EDGE
U1, RF1
*END STEP
*STEP, NAME=CYCLE_0270, NLGEOM=NO, INC=160
*STATIC
0.005, 1.0, 1.0E-08, 0.025
*RESTART, WRITE, FREQUENCY=1
*BOUNDARY, AMPLITUDE=AMP_ONE_CYCLE
RIGHT_EDGE, 1, 1, 0.10
*OUTPUT, HISTORY, FREQUENCY=1
*NODE OUTPUT, NSET=RIGHT_EDGE
U1, RF1
*END STEP
*STEP, NAME=CYCLE_0271, NLGEOM=NO, INC=160
*STATIC
0.005, 1.0, 1.0E-08, 0.025
*RESTART, WRITE, FREQUENCY=1
*BOUNDARY, AMPLITUDE=AMP_ONE_CYCLE
RIGHT_EDGE, 1, 1, 0.10
*OUTPUT, HISTORY, FREQUENCY=1
*NODE OUTPUT, NSET=RIGHT_EDGE
U1, RF1
*END STEP
*STEP, NAME=CYCLE_0272, NLGEOM=NO, INC=160
*STATIC
0.005, 1.0, 1.0E-08, 0.025
*RESTART, WRITE, FREQUENCY=1
*BOUNDARY, AMPLITUDE=AMP_ONE_CYCLE
RIGHT_EDGE, 1, 1, 0.10
*OUTPUT, HISTORY, FREQUENCY=1
*NODE OUTPUT, NSET=RIGHT_EDGE
U1, RF1
*END STEP
*STEP, NAME=CYCLE_0273, NLGEOM=NO, INC=160
*STATIC
0.005, 1.0, 1.0E-08, 0.025
*RESTART, WRITE, FREQUENCY=1
*BOUNDARY, AMPLITUDE=AMP_ONE_CYCLE
RIGHT_EDGE, 1, 1, 0.10
*OUTPUT, HISTORY, FREQUENCY=1
*NODE OUTPUT, NSET=RIGHT_EDGE
U1, RF1
*END STEP
*STEP, NAME=CYCLE_0274, NLGEOM=NO, INC=160
*STATIC
0.005, 1.0, 1.0E-08, 0.025
*RESTART, WRITE, FREQUENCY=1
*BOUNDARY, AMPLITUDE=AMP_ONE_CYCLE
RIGHT_EDGE, 1, 1, 0.10
*OUTPUT, HISTORY, FREQUENCY=1
*NODE OUTPUT, NSET=RIGHT_EDGE
U1, RF1
*END STEP
*STEP, NAME=CYCLE_0275, NLGEOM=NO, INC=160
*STATIC
0.005, 1.0, 1.0E-08, 0.025
*RESTART, WRITE, FREQUENCY=1
*BOUNDARY, AMPLITUDE=AMP_ONE_CYCLE
RIGHT_EDGE, 1, 1, 0.10
*OUTPUT, HISTORY, FREQUENCY=1
*NODE OUTPUT, NSET=RIGHT_EDGE
U1, RF1
*END STEP
*STEP, NAME=CYCLE_0276, NLGEOM=NO, INC=160
*STATIC
0.005, 1.0, 1.0E-08, 0.025
*RESTART, WRITE, FREQUENCY=1
*BOUNDARY, AMPLITUDE=AMP_ONE_CYCLE
RIGHT_EDGE, 1, 1, 0.10
*OUTPUT, HISTORY, FREQUENCY=1
*NODE OUTPUT, NSET=RIGHT_EDGE
U1, RF1
*END STEP
*STEP, NAME=CYCLE_0277, NLGEOM=NO, INC=160
*STATIC
0.005, 1.0, 1.0E-08, 0.025
*RESTART, WRITE, FREQUENCY=1
*BOUNDARY, AMPLITUDE=AMP_ONE_CYCLE
RIGHT_EDGE, 1, 1, 0.10
*OUTPUT, HISTORY, FREQUENCY=1
*NODE OUTPUT, NSET=RIGHT_EDGE
U1, RF1
*END STEP
*STEP, NAME=CYCLE_0278, NLGEOM=NO, INC=160
*STATIC
0.005, 1.0, 1.0E-08, 0.025
*RESTART, WRITE, FREQUENCY=1
*BOUNDARY, AMPLITUDE=AMP_ONE_CYCLE
RIGHT_EDGE, 1, 1, 0.10
*OUTPUT, HISTORY, FREQUENCY=1
*NODE OUTPUT, NSET=RIGHT_EDGE
U1, RF1
*END STEP
*STEP, NAME=CYCLE_0279, NLGEOM=NO, INC=160
*STATIC
0.005, 1.0, 1.0E-08, 0.025
*RESTART, WRITE, FREQUENCY=1
*BOUNDARY, AMPLITUDE=AMP_ONE_CYCLE
RIGHT_EDGE, 1, 1, 0.10
*OUTPUT, HISTORY, FREQUENCY=1
*NODE OUTPUT, NSET=RIGHT_EDGE
U1, RF1
*END STEP
*STEP, NAME=CYCLE_0280, NLGEOM=NO, INC=160
*STATIC
0.005, 1.0, 1.0E-08, 0.025
*RESTART, WRITE, FREQUENCY=1
*BOUNDARY, AMPLITUDE=AMP_ONE_CYCLE
RIGHT_EDGE, 1, 1, 0.10
*OUTPUT, HISTORY, FREQUENCY=1
*NODE OUTPUT, NSET=RIGHT_EDGE
U1, RF1
*OUTPUT, FIELD, NUMBER INTERVAL=4
*NODE OUTPUT
U, RF
*ELEMENT OUTPUT
S, SDV
*END STEP
*STEP, NAME=CYCLE_0281, NLGEOM=NO, INC=160
*STATIC
0.005, 1.0, 1.0E-08, 0.025
*RESTART, WRITE, FREQUENCY=1
*BOUNDARY, AMPLITUDE=AMP_ONE_CYCLE
RIGHT_EDGE, 1, 1, 0.10
*OUTPUT, HISTORY, FREQUENCY=1
*NODE OUTPUT, NSET=RIGHT_EDGE
U1, RF1
*OUTPUT, FIELD, NUMBER INTERVAL=4
*NODE OUTPUT
U, RF
*ELEMENT OUTPUT
S, SDV
*END STEP
