** SENSITIVITY STUDY VARIANT
** Baseline: original 20-cycle deck with DMAX=0.02, original output settings
** 
** Chaboche-v1 UMAT - Twenty Fully Reversed Cycles at eps_amp=0.005
*HEADING
Chaboche-v1 UMAT - 20 cyclic tension-compression cycles, eps_amp=0.005

** ----------------------------------------------------------------
** PART
** ----------------------------------------------------------------
*PART, NAME=BLOCK
*NODE
1,0.0,0.0,0.0
2,10.0,0.0,0.0
3,10.0,2.0,0.0
4,0.0,2.0,0.0
5,0.0,0.0,2.0
6,10.0,0.0,2.0
7,10.0,2.0,2.0
8,0.0,2.0,2.0
*ELEMENT, TYPE=C3D8, ELSET=BLOCK
1,1,2,3,4,5,6,7,8
*SOLID SECTION, ELSET=BLOCK, MATERIAL=CHABOCHE_VP
*END PART

** ----------------------------------------------------------------
** ASSEMBLY
** ----------------------------------------------------------------
*ASSEMBLY, NAME=ASSEMBLY
*INSTANCE, NAME=BLOCK_INST, PART=BLOCK
*END INSTANCE
*NSET, NSET=LEFT_FACE, INSTANCE=BLOCK_INST
1,4,5,8
*NSET, NSET=RIGHT_FACE, INSTANCE=BLOCK_INST
2,3,6,7
*END ASSEMBLY

** ----------------------------------------------------------------
** MATERIAL
** ----------------------------------------------------------------
*MATERIAL, NAME=CHABOCHE_VP
*DEPVAR
15
*USER MATERIAL, CONSTANTS=9
** E, nu, sigma_y, Q, b, C, gamma, K, m
210000.0, 0.3, 520.0, 200.0, 0.05, 120000.0, 800.0, 1000.0, 5.0

** ----------------------------------------------------------------
** CYCLIC AMPLITUDE: 20 cycles, 0 -> +1 -> 0 -> -1 -> 0 per cycle
** ----------------------------------------------------------------
*AMPLITUDE, NAME=AMP_CYCLIC_20, DEFINITION=TABULAR
0.00, 0.0
0.25, 1.0
0.50, 0.0
0.75, -1.0
1.00, 0.0
1.25, 1.0
1.50, 0.0
1.75, -1.0
2.00, 0.0
2.25, 1.0
2.50, 0.0
2.75, -1.0
3.00, 0.0
3.25, 1.0
3.50, 0.0
3.75, -1.0
4.00, 0.0
4.25, 1.0
4.50, 0.0
4.75, -1.0
5.00, 0.0
5.25, 1.0
5.50, 0.0
5.75, -1.0
6.00, 0.0
6.25, 1.0
6.50, 0.0
6.75, -1.0
7.00, 0.0
7.25, 1.0
7.50, 0.0
7.75, -1.0
8.00, 0.0
8.25, 1.0
8.50, 0.0
8.75, -1.0
9.00, 0.0
9.25, 1.0
9.50, 0.0
9.75, -1.0
10.00, 0.0
10.25, 1.0
10.50, 0.0
10.75, -1.0
11.00, 0.0
11.25, 1.0
11.50, 0.0
11.75, -1.0
12.00, 0.0
12.25, 1.0
12.50, 0.0
12.75, -1.0
13.00, 0.0
13.25, 1.0
13.50, 0.0
13.75, -1.0
14.00, 0.0
14.25, 1.0
14.50, 0.0
14.75, -1.0
15.00, 0.0
15.25, 1.0
15.50, 0.0
15.75, -1.0
16.00, 0.0
16.25, 1.0
16.50, 0.0
16.75, -1.0
17.00, 0.0
17.25, 1.0
17.50, 0.0
17.75, -1.0
18.00, 0.0
18.25, 1.0
18.50, 0.0
18.75, -1.0
19.00, 0.0
19.25, 1.0
19.50, 0.0
19.75, -1.0
20.00, 0.0

** ----------------------------------------------------------------
** STEP: TWENTY FULLY REVERSED CYCLES
** ----------------------------------------------------------------
*STEP, NAME=CYCLIC_20, NLGEOM=NO, INC=2500
*STATIC
0.001, 20.0, 1.0E-08, 0.02

*BOUNDARY
LEFT_FACE, 1, 1, 0.0
BLOCK_INST.1, 2, 3, 0.0
BLOCK_INST.4, 3, 3, 0.0
*BOUNDARY, AMPLITUDE=AMP_CYCLIC_20
RIGHT_FACE, 1, 1, 0.05

*OUTPUT, FIELD, FREQUENCY=1
*NODE OUTPUT
U, RF
*ELEMENT OUTPUT
S, SDV

*OUTPUT, HISTORY, FREQUENCY=1
*NODE OUTPUT, NSET=RIGHT_FACE
U1, RF1

*END STEP
